%chk=g16_h2.chk
#p hf/sto-3g sp

MATRIX G16 launcher smoke H2

0 1
H 0.00000000 0.00000000 0.00000000
H 0.00000000 0.00000000 0.74000000

