! HF STO-3G SP
* xyz 0 1
H 0.00000000 0.00000000 0.00000000
H 0.00000000 0.00000000 0.74000000
*
