#p hf/sto-3g opt=readallgic freq

MATRIX pyrrole symmetrized GIC ReadAllGIC

0 1
C       0.98240600      0.71170200      0.00000000
C       0.98240600     -0.71170200      0.00000000
C      -0.33130600      1.12246600      0.00000000
H       1.84409400      1.35997200      0.00000000
C      -0.33130600     -1.12246600      0.00000000
H       1.84409400     -1.35997200      0.00000000
N      -1.11852100      0.00000000      0.00000000
H      -0.76499500      2.10882900      0.00000000
H      -2.12213600      0.00000000      0.00000000
H      -0.76499500     -2.10882900      0.00000000

A1Str001 = R(1,2)
A1Str002 = 0.707106781187*(R(1,3))+0.707106781187*(R(2,5))
A1Str003 = 0.707106781187*(R(1,4))+0.707106781187*(R(2,6))
A1Str004 = 0.707106781187*(R(3,7))+0.707106781187*(R(5,7))
A1Str005 = 0.707106781187*(R(3,8))+0.707106781187*(R(5,10))
A1Str006 = R(7,9)
B2Str001(Frozen) = 0.707106781187*(R(1,3))-0.707106781187*(R(2,5))
B2Str002(Frozen) = 0.707106781187*(R(1,4))-0.707106781187*(R(2,6))
B2Str003(Frozen) = 0.707106781187*(R(3,7))-0.707106781187*(R(5,7))
B2Str004(Frozen) = 0.707106781187*(R(3,8))-0.707106781187*(R(5,10))
A1Bend001 = 0.5*(A(4,1,3))-0.5*(A(4,1,2))+0.5*(A(6,2,5))-0.5*(A(6,2,1))
A1Bend002 = 0.5*(A(8,3,7))-0.5*(A(8,3,1))+0.5*(A(10,5,7))-0.5*(A(10,5,2))
B2Bend001(Frozen) = 0.5*(A(4,1,3))-0.5*(A(4,1,2))-0.5*(A(6,2,5))+0.5*(A(6,2,1))
B2Bend002(Frozen) = 0.5*(A(8,3,7))-0.5*(A(8,3,1))-0.5*(A(10,5,7))+0.5*(A(10,5,2))
B2Bend003(Frozen) = 0.707106781187*(A(9,7,5))-0.707106781187*(A(9,7,3))
A1CyBe001 = 0.195439507585*(A(1,2,5))-0.511667273602*(A(2,5,7))+0.632455532034*(A(5,7,3))-0.511667273602*(A(7,3,1))+0.195439507585*(A(3,1,2))
B2CyBe001(Frozen) = 0.601500955008*(A(1,2,5))-0.37174803446*(A(2,5,7))+0.37174803446*(A(7,3,1))-0.601500955008*(A(3,1,2))
A2RPck001(Frozen) = -0.601500955008*(D(5,7,3,1))+0.37174803446*(D(7,3,1,2))+0.37174803446*(D(1,2,5,7))-0.601500955008*(D(2,5,7,3))
B1RPck001(Frozen) = -0.195439507585*(D(5,7,3,1))+0.511667273602*(D(7,3,1,2))+0.632455532034*(D(3,1,2,5))-0.511667273602*(D(1,2,5,7))+0.195439507585*(D(2,5,7,3))
A2OuPl001(Frozen) = 0.707106781187*(U(1,2,3,4))+0.707106781187*(U(2,1,5,6))
A2OuPl002(Frozen) = 0.707106781187*(U(3,1,7,8))+0.707106781187*(U(5,2,7,10))
B1OuPl001(Frozen) = 0.707106781187*(U(1,2,3,4))-0.707106781187*(U(2,1,5,6))
B1OuPl002(Frozen) = 0.707106781187*(U(3,1,7,8))-0.707106781187*(U(5,2,7,10))
B1OuPl003(Frozen) = U(7,3,5,9)

