%chk=erythrose_beta_E1_dpcs3_phi_000.chk
%mem=16GB
%nprocshared=8
#p b3lyp/def2tzvp empiricaldispersion=gd3bj opt=(addgic,calcfc,noeigentest,maxcycles=200) int=ultrafine scf=(xqc,tight) nosymm

Erythrose beta E1 DPCS3 Prelog phase scan: absolute phi=0.000 deg

0 1
C       -0.10912900      -1.35754000       0.57342700
C       -0.79976900      -0.55809400      -0.55526600
C       -0.14988600       0.83115600      -0.41724400
C        1.22345900       0.46167900       0.11066000
O        0.94897900      -0.51742700       1.08927800
O       -2.20462900      -0.51866400      -0.45745700
O       -0.85825200       1.61137100       0.53807700
O        1.96827800      -0.04531500      -0.96716400
H       -0.80197000      -1.56395700       1.38882600
H       -0.12588000       1.39604900      -1.34590100
H       -0.61465100       1.28806000       1.41372300
H        2.80630900      -0.36844100      -0.62291800
H        1.74229500       1.27946800       0.61621500
H        0.31500500      -2.29579600       0.21312900
H       -0.55360900      -0.98540200      -1.52660300
H       -2.41710900       0.25465100       0.08018900

T0(Inactive)=D(1,2,3,4)
T1(Inactive)=D(2,3,4,5)
T2(Inactive)=D(3,4,5,1)
T3(Inactive)=D(4,5,1,2)
T4(Inactive)=D(5,1,2,3)
QC(Inactive)=-0.3717480345*T0+0.0000000000*T1+0.3717480345*T2-0.6015009550*T3+0.6015009550*T4
QS(Inactive)=0.5116672736*T0-0.6324555320*T1+0.5116672736*T2-0.1954395076*T3-0.1954395076*T4
PhiAbs(Inactive)=ATAN2(QS,QC)
Phi(NSteps=1,StepSize=-1.4294568273)=PhiAbs

--Link1--
%chk=erythrose_beta_E1_dpcs3_phi_010.chk
%mem=16GB
%nprocshared=8
#p b3lyp/def2tzvp empiricaldispersion=gd3bj opt=(addgic,calcfc,noeigentest,maxcycles=200) int=ultrafine scf=(xqc,tight) nosymm

Erythrose beta E1 DPCS3 Prelog phase scan: absolute phi=10.000 deg

0 1
C       -0.10912900      -1.35754000       0.57342700
C       -0.79976900      -0.55809400      -0.55526600
C       -0.14988600       0.83115600      -0.41724400
C        1.22345900       0.46167900       0.11066000
O        0.94897900      -0.51742700       1.08927800
O       -2.20462900      -0.51866400      -0.45745700
O       -0.85825200       1.61137100       0.53807700
O        1.96827800      -0.04531500      -0.96716400
H       -0.80197000      -1.56395700       1.38882600
H       -0.12588000       1.39604900      -1.34590100
H       -0.61465100       1.28806000       1.41372300
H        2.80630900      -0.36844100      -0.62291800
H        1.74229500       1.27946800       0.61621500
H        0.31500500      -2.29579600       0.21312900
H       -0.55360900      -0.98540200      -1.52660300
H       -2.41710900       0.25465100       0.08018900

T0(Inactive)=D(1,2,3,4)
T1(Inactive)=D(2,3,4,5)
T2(Inactive)=D(3,4,5,1)
T3(Inactive)=D(4,5,1,2)
T4(Inactive)=D(5,1,2,3)
QC(Inactive)=-0.3717480345*T0+0.0000000000*T1+0.3717480345*T2-0.6015009550*T3+0.6015009550*T4
QS(Inactive)=0.5116672736*T0-0.6324555320*T1+0.5116672736*T2-0.1954395076*T3-0.1954395076*T4
PhiAbs(Inactive)=ATAN2(QS,QC)
Phi(NSteps=1,StepSize=-1.2549239021)=PhiAbs

--Link1--
%chk=erythrose_beta_E1_dpcs3_phi_020.chk
%mem=16GB
%nprocshared=8
#p b3lyp/def2tzvp empiricaldispersion=gd3bj opt=(addgic,calcfc,noeigentest,maxcycles=200) int=ultrafine scf=(xqc,tight) nosymm

Erythrose beta E1 DPCS3 Prelog phase scan: absolute phi=20.000 deg

0 1
C       -0.10912900      -1.35754000       0.57342700
C       -0.79976900      -0.55809400      -0.55526600
C       -0.14988600       0.83115600      -0.41724400
C        1.22345900       0.46167900       0.11066000
O        0.94897900      -0.51742700       1.08927800
O       -2.20462900      -0.51866400      -0.45745700
O       -0.85825200       1.61137100       0.53807700
O        1.96827800      -0.04531500      -0.96716400
H       -0.80197000      -1.56395700       1.38882600
H       -0.12588000       1.39604900      -1.34590100
H       -0.61465100       1.28806000       1.41372300
H        2.80630900      -0.36844100      -0.62291800
H        1.74229500       1.27946800       0.61621500
H        0.31500500      -2.29579600       0.21312900
H       -0.55360900      -0.98540200      -1.52660300
H       -2.41710900       0.25465100       0.08018900

T0(Inactive)=D(1,2,3,4)
T1(Inactive)=D(2,3,4,5)
T2(Inactive)=D(3,4,5,1)
T3(Inactive)=D(4,5,1,2)
T4(Inactive)=D(5,1,2,3)
QC(Inactive)=-0.3717480345*T0+0.0000000000*T1+0.3717480345*T2-0.6015009550*T3+0.6015009550*T4
QS(Inactive)=0.5116672736*T0-0.6324555320*T1+0.5116672736*T2-0.1954395076*T3-0.1954395076*T4
PhiAbs(Inactive)=ATAN2(QS,QC)
Phi(NSteps=1,StepSize=-1.0803909769)=PhiAbs

--Link1--
%chk=erythrose_beta_E1_dpcs3_phi_030.chk
%mem=16GB
%nprocshared=8
#p b3lyp/def2tzvp empiricaldispersion=gd3bj opt=(addgic,calcfc,noeigentest,maxcycles=200) int=ultrafine scf=(xqc,tight) nosymm

Erythrose beta E1 DPCS3 Prelog phase scan: absolute phi=30.000 deg

0 1
C       -0.10912900      -1.35754000       0.57342700
C       -0.79976900      -0.55809400      -0.55526600
C       -0.14988600       0.83115600      -0.41724400
C        1.22345900       0.46167900       0.11066000
O        0.94897900      -0.51742700       1.08927800
O       -2.20462900      -0.51866400      -0.45745700
O       -0.85825200       1.61137100       0.53807700
O        1.96827800      -0.04531500      -0.96716400
H       -0.80197000      -1.56395700       1.38882600
H       -0.12588000       1.39604900      -1.34590100
H       -0.61465100       1.28806000       1.41372300
H        2.80630900      -0.36844100      -0.62291800
H        1.74229500       1.27946800       0.61621500
H        0.31500500      -2.29579600       0.21312900
H       -0.55360900      -0.98540200      -1.52660300
H       -2.41710900       0.25465100       0.08018900

T0(Inactive)=D(1,2,3,4)
T1(Inactive)=D(2,3,4,5)
T2(Inactive)=D(3,4,5,1)
T3(Inactive)=D(4,5,1,2)
T4(Inactive)=D(5,1,2,3)
QC(Inactive)=-0.3717480345*T0+0.0000000000*T1+0.3717480345*T2-0.6015009550*T3+0.6015009550*T4
QS(Inactive)=0.5116672736*T0-0.6324555320*T1+0.5116672736*T2-0.1954395076*T3-0.1954395076*T4
PhiAbs(Inactive)=ATAN2(QS,QC)
Phi(NSteps=1,StepSize=-0.9058580517)=PhiAbs

--Link1--
%chk=erythrose_beta_E1_dpcs3_phi_040.chk
%mem=16GB
%nprocshared=8
#p b3lyp/def2tzvp empiricaldispersion=gd3bj opt=(addgic,calcfc,noeigentest,maxcycles=200) int=ultrafine scf=(xqc,tight) nosymm

Erythrose beta E1 DPCS3 Prelog phase scan: absolute phi=40.000 deg

0 1
C       -0.10912900      -1.35754000       0.57342700
C       -0.79976900      -0.55809400      -0.55526600
C       -0.14988600       0.83115600      -0.41724400
C        1.22345900       0.46167900       0.11066000
O        0.94897900      -0.51742700       1.08927800
O       -2.20462900      -0.51866400      -0.45745700
O       -0.85825200       1.61137100       0.53807700
O        1.96827800      -0.04531500      -0.96716400
H       -0.80197000      -1.56395700       1.38882600
H       -0.12588000       1.39604900      -1.34590100
H       -0.61465100       1.28806000       1.41372300
H        2.80630900      -0.36844100      -0.62291800
H        1.74229500       1.27946800       0.61621500
H        0.31500500      -2.29579600       0.21312900
H       -0.55360900      -0.98540200      -1.52660300
H       -2.41710900       0.25465100       0.08018900

T0(Inactive)=D(1,2,3,4)
T1(Inactive)=D(2,3,4,5)
T2(Inactive)=D(3,4,5,1)
T3(Inactive)=D(4,5,1,2)
T4(Inactive)=D(5,1,2,3)
QC(Inactive)=-0.3717480345*T0+0.0000000000*T1+0.3717480345*T2-0.6015009550*T3+0.6015009550*T4
QS(Inactive)=0.5116672736*T0-0.6324555320*T1+0.5116672736*T2-0.1954395076*T3-0.1954395076*T4
PhiAbs(Inactive)=ATAN2(QS,QC)
Phi(NSteps=1,StepSize=-0.7313251265)=PhiAbs

--Link1--
%chk=erythrose_beta_E1_dpcs3_phi_050.chk
%mem=16GB
%nprocshared=8
#p b3lyp/def2tzvp empiricaldispersion=gd3bj opt=(addgic,calcfc,noeigentest,maxcycles=200) int=ultrafine scf=(xqc,tight) nosymm

Erythrose beta E1 DPCS3 Prelog phase scan: absolute phi=50.000 deg

0 1
C       -0.10912900      -1.35754000       0.57342700
C       -0.79976900      -0.55809400      -0.55526600
C       -0.14988600       0.83115600      -0.41724400
C        1.22345900       0.46167900       0.11066000
O        0.94897900      -0.51742700       1.08927800
O       -2.20462900      -0.51866400      -0.45745700
O       -0.85825200       1.61137100       0.53807700
O        1.96827800      -0.04531500      -0.96716400
H       -0.80197000      -1.56395700       1.38882600
H       -0.12588000       1.39604900      -1.34590100
H       -0.61465100       1.28806000       1.41372300
H        2.80630900      -0.36844100      -0.62291800
H        1.74229500       1.27946800       0.61621500
H        0.31500500      -2.29579600       0.21312900
H       -0.55360900      -0.98540200      -1.52660300
H       -2.41710900       0.25465100       0.08018900

T0(Inactive)=D(1,2,3,4)
T1(Inactive)=D(2,3,4,5)
T2(Inactive)=D(3,4,5,1)
T3(Inactive)=D(4,5,1,2)
T4(Inactive)=D(5,1,2,3)
QC(Inactive)=-0.3717480345*T0+0.0000000000*T1+0.3717480345*T2-0.6015009550*T3+0.6015009550*T4
QS(Inactive)=0.5116672736*T0-0.6324555320*T1+0.5116672736*T2-0.1954395076*T3-0.1954395076*T4
PhiAbs(Inactive)=ATAN2(QS,QC)
Phi(NSteps=1,StepSize=-0.5567922013)=PhiAbs

--Link1--
%chk=erythrose_beta_E1_dpcs3_phi_060.chk
%mem=16GB
%nprocshared=8
#p b3lyp/def2tzvp empiricaldispersion=gd3bj opt=(addgic,calcfc,noeigentest,maxcycles=200) int=ultrafine scf=(xqc,tight) nosymm

Erythrose beta E1 DPCS3 Prelog phase scan: absolute phi=60.000 deg

0 1
C       -0.10912900      -1.35754000       0.57342700
C       -0.79976900      -0.55809400      -0.55526600
C       -0.14988600       0.83115600      -0.41724400
C        1.22345900       0.46167900       0.11066000
O        0.94897900      -0.51742700       1.08927800
O       -2.20462900      -0.51866400      -0.45745700
O       -0.85825200       1.61137100       0.53807700
O        1.96827800      -0.04531500      -0.96716400
H       -0.80197000      -1.56395700       1.38882600
H       -0.12588000       1.39604900      -1.34590100
H       -0.61465100       1.28806000       1.41372300
H        2.80630900      -0.36844100      -0.62291800
H        1.74229500       1.27946800       0.61621500
H        0.31500500      -2.29579600       0.21312900
H       -0.55360900      -0.98540200      -1.52660300
H       -2.41710900       0.25465100       0.08018900

T0(Inactive)=D(1,2,3,4)
T1(Inactive)=D(2,3,4,5)
T2(Inactive)=D(3,4,5,1)
T3(Inactive)=D(4,5,1,2)
T4(Inactive)=D(5,1,2,3)
QC(Inactive)=-0.3717480345*T0+0.0000000000*T1+0.3717480345*T2-0.6015009550*T3+0.6015009550*T4
QS(Inactive)=0.5116672736*T0-0.6324555320*T1+0.5116672736*T2-0.1954395076*T3-0.1954395076*T4
PhiAbs(Inactive)=ATAN2(QS,QC)
Phi(NSteps=1,StepSize=-0.3822592761)=PhiAbs

--Link1--
%chk=erythrose_beta_E1_dpcs3_phi_070.chk
%mem=16GB
%nprocshared=8
#p b3lyp/def2tzvp empiricaldispersion=gd3bj opt=(addgic,calcfc,noeigentest,maxcycles=200) int=ultrafine scf=(xqc,tight) nosymm

Erythrose beta E1 DPCS3 Prelog phase scan: absolute phi=70.000 deg

0 1
C       -0.10912900      -1.35754000       0.57342700
C       -0.79976900      -0.55809400      -0.55526600
C       -0.14988600       0.83115600      -0.41724400
C        1.22345900       0.46167900       0.11066000
O        0.94897900      -0.51742700       1.08927800
O       -2.20462900      -0.51866400      -0.45745700
O       -0.85825200       1.61137100       0.53807700
O        1.96827800      -0.04531500      -0.96716400
H       -0.80197000      -1.56395700       1.38882600
H       -0.12588000       1.39604900      -1.34590100
H       -0.61465100       1.28806000       1.41372300
H        2.80630900      -0.36844100      -0.62291800
H        1.74229500       1.27946800       0.61621500
H        0.31500500      -2.29579600       0.21312900
H       -0.55360900      -0.98540200      -1.52660300
H       -2.41710900       0.25465100       0.08018900

T0(Inactive)=D(1,2,3,4)
T1(Inactive)=D(2,3,4,5)
T2(Inactive)=D(3,4,5,1)
T3(Inactive)=D(4,5,1,2)
T4(Inactive)=D(5,1,2,3)
QC(Inactive)=-0.3717480345*T0+0.0000000000*T1+0.3717480345*T2-0.6015009550*T3+0.6015009550*T4
QS(Inactive)=0.5116672736*T0-0.6324555320*T1+0.5116672736*T2-0.1954395076*T3-0.1954395076*T4
PhiAbs(Inactive)=ATAN2(QS,QC)
Phi(NSteps=1,StepSize=-0.2077263509)=PhiAbs

--Link1--
%chk=erythrose_beta_E1_dpcs3_phi_080.chk
%mem=16GB
%nprocshared=8
#p b3lyp/def2tzvp empiricaldispersion=gd3bj opt=(addgic,calcfc,noeigentest,maxcycles=200) int=ultrafine scf=(xqc,tight) nosymm

Erythrose beta E1 DPCS3 Prelog phase scan: absolute phi=80.000 deg

0 1
C       -0.10912900      -1.35754000       0.57342700
C       -0.79976900      -0.55809400      -0.55526600
C       -0.14988600       0.83115600      -0.41724400
C        1.22345900       0.46167900       0.11066000
O        0.94897900      -0.51742700       1.08927800
O       -2.20462900      -0.51866400      -0.45745700
O       -0.85825200       1.61137100       0.53807700
O        1.96827800      -0.04531500      -0.96716400
H       -0.80197000      -1.56395700       1.38882600
H       -0.12588000       1.39604900      -1.34590100
H       -0.61465100       1.28806000       1.41372300
H        2.80630900      -0.36844100      -0.62291800
H        1.74229500       1.27946800       0.61621500
H        0.31500500      -2.29579600       0.21312900
H       -0.55360900      -0.98540200      -1.52660300
H       -2.41710900       0.25465100       0.08018900

T0(Inactive)=D(1,2,3,4)
T1(Inactive)=D(2,3,4,5)
T2(Inactive)=D(3,4,5,1)
T3(Inactive)=D(4,5,1,2)
T4(Inactive)=D(5,1,2,3)
QC(Inactive)=-0.3717480345*T0+0.0000000000*T1+0.3717480345*T2-0.6015009550*T3+0.6015009550*T4
QS(Inactive)=0.5116672736*T0-0.6324555320*T1+0.5116672736*T2-0.1954395076*T3-0.1954395076*T4
PhiAbs(Inactive)=ATAN2(QS,QC)
Phi(NSteps=1,StepSize=-0.0331934257)=PhiAbs

--Link1--
%chk=erythrose_beta_E1_dpcs3_phi_090.chk
%mem=16GB
%nprocshared=8
#p b3lyp/def2tzvp empiricaldispersion=gd3bj opt=(addgic,calcfc,noeigentest,maxcycles=200) int=ultrafine scf=(xqc,tight) nosymm

Erythrose beta E1 DPCS3 Prelog phase scan: absolute phi=90.000 deg

0 1
C       -0.10912900      -1.35754000       0.57342700
C       -0.79976900      -0.55809400      -0.55526600
C       -0.14988600       0.83115600      -0.41724400
C        1.22345900       0.46167900       0.11066000
O        0.94897900      -0.51742700       1.08927800
O       -2.20462900      -0.51866400      -0.45745700
O       -0.85825200       1.61137100       0.53807700
O        1.96827800      -0.04531500      -0.96716400
H       -0.80197000      -1.56395700       1.38882600
H       -0.12588000       1.39604900      -1.34590100
H       -0.61465100       1.28806000       1.41372300
H        2.80630900      -0.36844100      -0.62291800
H        1.74229500       1.27946800       0.61621500
H        0.31500500      -2.29579600       0.21312900
H       -0.55360900      -0.98540200      -1.52660300
H       -2.41710900       0.25465100       0.08018900

T0(Inactive)=D(1,2,3,4)
T1(Inactive)=D(2,3,4,5)
T2(Inactive)=D(3,4,5,1)
T3(Inactive)=D(4,5,1,2)
T4(Inactive)=D(5,1,2,3)
QC(Inactive)=-0.3717480345*T0+0.0000000000*T1+0.3717480345*T2-0.6015009550*T3+0.6015009550*T4
QS(Inactive)=0.5116672736*T0-0.6324555320*T1+0.5116672736*T2-0.1954395076*T3-0.1954395076*T4
PhiAbs(Inactive)=ATAN2(QS,QC)
Phi(NSteps=1,StepSize=0.1413394995)=PhiAbs

--Link1--
%chk=erythrose_beta_E1_dpcs3_phi_100.chk
%mem=16GB
%nprocshared=8
#p b3lyp/def2tzvp empiricaldispersion=gd3bj opt=(addgic,calcfc,noeigentest,maxcycles=200) int=ultrafine scf=(xqc,tight) nosymm

Erythrose beta E1 DPCS3 Prelog phase scan: absolute phi=100.000 deg

0 1
C       -0.10912900      -1.35754000       0.57342700
C       -0.79976900      -0.55809400      -0.55526600
C       -0.14988600       0.83115600      -0.41724400
C        1.22345900       0.46167900       0.11066000
O        0.94897900      -0.51742700       1.08927800
O       -2.20462900      -0.51866400      -0.45745700
O       -0.85825200       1.61137100       0.53807700
O        1.96827800      -0.04531500      -0.96716400
H       -0.80197000      -1.56395700       1.38882600
H       -0.12588000       1.39604900      -1.34590100
H       -0.61465100       1.28806000       1.41372300
H        2.80630900      -0.36844100      -0.62291800
H        1.74229500       1.27946800       0.61621500
H        0.31500500      -2.29579600       0.21312900
H       -0.55360900      -0.98540200      -1.52660300
H       -2.41710900       0.25465100       0.08018900

T0(Inactive)=D(1,2,3,4)
T1(Inactive)=D(2,3,4,5)
T2(Inactive)=D(3,4,5,1)
T3(Inactive)=D(4,5,1,2)
T4(Inactive)=D(5,1,2,3)
QC(Inactive)=-0.3717480345*T0+0.0000000000*T1+0.3717480345*T2-0.6015009550*T3+0.6015009550*T4
QS(Inactive)=0.5116672736*T0-0.6324555320*T1+0.5116672736*T2-0.1954395076*T3-0.1954395076*T4
PhiAbs(Inactive)=ATAN2(QS,QC)
Phi(NSteps=1,StepSize=0.3158724247)=PhiAbs

--Link1--
%chk=erythrose_beta_E1_dpcs3_phi_110.chk
%mem=16GB
%nprocshared=8
#p b3lyp/def2tzvp empiricaldispersion=gd3bj opt=(addgic,calcfc,noeigentest,maxcycles=200) int=ultrafine scf=(xqc,tight) nosymm

Erythrose beta E1 DPCS3 Prelog phase scan: absolute phi=110.000 deg

0 1
C       -0.10912900      -1.35754000       0.57342700
C       -0.79976900      -0.55809400      -0.55526600
C       -0.14988600       0.83115600      -0.41724400
C        1.22345900       0.46167900       0.11066000
O        0.94897900      -0.51742700       1.08927800
O       -2.20462900      -0.51866400      -0.45745700
O       -0.85825200       1.61137100       0.53807700
O        1.96827800      -0.04531500      -0.96716400
H       -0.80197000      -1.56395700       1.38882600
H       -0.12588000       1.39604900      -1.34590100
H       -0.61465100       1.28806000       1.41372300
H        2.80630900      -0.36844100      -0.62291800
H        1.74229500       1.27946800       0.61621500
H        0.31500500      -2.29579600       0.21312900
H       -0.55360900      -0.98540200      -1.52660300
H       -2.41710900       0.25465100       0.08018900

T0(Inactive)=D(1,2,3,4)
T1(Inactive)=D(2,3,4,5)
T2(Inactive)=D(3,4,5,1)
T3(Inactive)=D(4,5,1,2)
T4(Inactive)=D(5,1,2,3)
QC(Inactive)=-0.3717480345*T0+0.0000000000*T1+0.3717480345*T2-0.6015009550*T3+0.6015009550*T4
QS(Inactive)=0.5116672736*T0-0.6324555320*T1+0.5116672736*T2-0.1954395076*T3-0.1954395076*T4
PhiAbs(Inactive)=ATAN2(QS,QC)
Phi(NSteps=1,StepSize=0.4904053499)=PhiAbs

--Link1--
%chk=erythrose_beta_E1_dpcs3_phi_120.chk
%mem=16GB
%nprocshared=8
#p b3lyp/def2tzvp empiricaldispersion=gd3bj opt=(addgic,calcfc,noeigentest,maxcycles=200) int=ultrafine scf=(xqc,tight) nosymm

Erythrose beta E1 DPCS3 Prelog phase scan: absolute phi=120.000 deg

0 1
C       -0.10912900      -1.35754000       0.57342700
C       -0.79976900      -0.55809400      -0.55526600
C       -0.14988600       0.83115600      -0.41724400
C        1.22345900       0.46167900       0.11066000
O        0.94897900      -0.51742700       1.08927800
O       -2.20462900      -0.51866400      -0.45745700
O       -0.85825200       1.61137100       0.53807700
O        1.96827800      -0.04531500      -0.96716400
H       -0.80197000      -1.56395700       1.38882600
H       -0.12588000       1.39604900      -1.34590100
H       -0.61465100       1.28806000       1.41372300
H        2.80630900      -0.36844100      -0.62291800
H        1.74229500       1.27946800       0.61621500
H        0.31500500      -2.29579600       0.21312900
H       -0.55360900      -0.98540200      -1.52660300
H       -2.41710900       0.25465100       0.08018900

T0(Inactive)=D(1,2,3,4)
T1(Inactive)=D(2,3,4,5)
T2(Inactive)=D(3,4,5,1)
T3(Inactive)=D(4,5,1,2)
T4(Inactive)=D(5,1,2,3)
QC(Inactive)=-0.3717480345*T0+0.0000000000*T1+0.3717480345*T2-0.6015009550*T3+0.6015009550*T4
QS(Inactive)=0.5116672736*T0-0.6324555320*T1+0.5116672736*T2-0.1954395076*T3-0.1954395076*T4
PhiAbs(Inactive)=ATAN2(QS,QC)
Phi(NSteps=1,StepSize=0.6649382751)=PhiAbs

--Link1--
%chk=erythrose_beta_E1_dpcs3_phi_130.chk
%mem=16GB
%nprocshared=8
#p b3lyp/def2tzvp empiricaldispersion=gd3bj opt=(addgic,calcfc,noeigentest,maxcycles=200) int=ultrafine scf=(xqc,tight) nosymm

Erythrose beta E1 DPCS3 Prelog phase scan: absolute phi=130.000 deg

0 1
C       -0.10912900      -1.35754000       0.57342700
C       -0.79976900      -0.55809400      -0.55526600
C       -0.14988600       0.83115600      -0.41724400
C        1.22345900       0.46167900       0.11066000
O        0.94897900      -0.51742700       1.08927800
O       -2.20462900      -0.51866400      -0.45745700
O       -0.85825200       1.61137100       0.53807700
O        1.96827800      -0.04531500      -0.96716400
H       -0.80197000      -1.56395700       1.38882600
H       -0.12588000       1.39604900      -1.34590100
H       -0.61465100       1.28806000       1.41372300
H        2.80630900      -0.36844100      -0.62291800
H        1.74229500       1.27946800       0.61621500
H        0.31500500      -2.29579600       0.21312900
H       -0.55360900      -0.98540200      -1.52660300
H       -2.41710900       0.25465100       0.08018900

T0(Inactive)=D(1,2,3,4)
T1(Inactive)=D(2,3,4,5)
T2(Inactive)=D(3,4,5,1)
T3(Inactive)=D(4,5,1,2)
T4(Inactive)=D(5,1,2,3)
QC(Inactive)=-0.3717480345*T0+0.0000000000*T1+0.3717480345*T2-0.6015009550*T3+0.6015009550*T4
QS(Inactive)=0.5116672736*T0-0.6324555320*T1+0.5116672736*T2-0.1954395076*T3-0.1954395076*T4
PhiAbs(Inactive)=ATAN2(QS,QC)
Phi(NSteps=1,StepSize=0.8394712003)=PhiAbs

--Link1--
%chk=erythrose_beta_E1_dpcs3_phi_140.chk
%mem=16GB
%nprocshared=8
#p b3lyp/def2tzvp empiricaldispersion=gd3bj opt=(addgic,calcfc,noeigentest,maxcycles=200) int=ultrafine scf=(xqc,tight) nosymm

Erythrose beta E1 DPCS3 Prelog phase scan: absolute phi=140.000 deg

0 1
C       -0.10912900      -1.35754000       0.57342700
C       -0.79976900      -0.55809400      -0.55526600
C       -0.14988600       0.83115600      -0.41724400
C        1.22345900       0.46167900       0.11066000
O        0.94897900      -0.51742700       1.08927800
O       -2.20462900      -0.51866400      -0.45745700
O       -0.85825200       1.61137100       0.53807700
O        1.96827800      -0.04531500      -0.96716400
H       -0.80197000      -1.56395700       1.38882600
H       -0.12588000       1.39604900      -1.34590100
H       -0.61465100       1.28806000       1.41372300
H        2.80630900      -0.36844100      -0.62291800
H        1.74229500       1.27946800       0.61621500
H        0.31500500      -2.29579600       0.21312900
H       -0.55360900      -0.98540200      -1.52660300
H       -2.41710900       0.25465100       0.08018900

T0(Inactive)=D(1,2,3,4)
T1(Inactive)=D(2,3,4,5)
T2(Inactive)=D(3,4,5,1)
T3(Inactive)=D(4,5,1,2)
T4(Inactive)=D(5,1,2,3)
QC(Inactive)=-0.3717480345*T0+0.0000000000*T1+0.3717480345*T2-0.6015009550*T3+0.6015009550*T4
QS(Inactive)=0.5116672736*T0-0.6324555320*T1+0.5116672736*T2-0.1954395076*T3-0.1954395076*T4
PhiAbs(Inactive)=ATAN2(QS,QC)
Phi(NSteps=1,StepSize=1.0140041255)=PhiAbs

--Link1--
%chk=erythrose_beta_E1_dpcs3_phi_150.chk
%mem=16GB
%nprocshared=8
#p b3lyp/def2tzvp empiricaldispersion=gd3bj opt=(addgic,calcfc,noeigentest,maxcycles=200) int=ultrafine scf=(xqc,tight) nosymm

Erythrose beta E1 DPCS3 Prelog phase scan: absolute phi=150.000 deg

0 1
C       -0.10912900      -1.35754000       0.57342700
C       -0.79976900      -0.55809400      -0.55526600
C       -0.14988600       0.83115600      -0.41724400
C        1.22345900       0.46167900       0.11066000
O        0.94897900      -0.51742700       1.08927800
O       -2.20462900      -0.51866400      -0.45745700
O       -0.85825200       1.61137100       0.53807700
O        1.96827800      -0.04531500      -0.96716400
H       -0.80197000      -1.56395700       1.38882600
H       -0.12588000       1.39604900      -1.34590100
H       -0.61465100       1.28806000       1.41372300
H        2.80630900      -0.36844100      -0.62291800
H        1.74229500       1.27946800       0.61621500
H        0.31500500      -2.29579600       0.21312900
H       -0.55360900      -0.98540200      -1.52660300
H       -2.41710900       0.25465100       0.08018900

T0(Inactive)=D(1,2,3,4)
T1(Inactive)=D(2,3,4,5)
T2(Inactive)=D(3,4,5,1)
T3(Inactive)=D(4,5,1,2)
T4(Inactive)=D(5,1,2,3)
QC(Inactive)=-0.3717480345*T0+0.0000000000*T1+0.3717480345*T2-0.6015009550*T3+0.6015009550*T4
QS(Inactive)=0.5116672736*T0-0.6324555320*T1+0.5116672736*T2-0.1954395076*T3-0.1954395076*T4
PhiAbs(Inactive)=ATAN2(QS,QC)
Phi(NSteps=1,StepSize=1.1885370507)=PhiAbs

--Link1--
%chk=erythrose_beta_E1_dpcs3_phi_160.chk
%mem=16GB
%nprocshared=8
#p b3lyp/def2tzvp empiricaldispersion=gd3bj opt=(addgic,calcfc,noeigentest,maxcycles=200) int=ultrafine scf=(xqc,tight) nosymm

Erythrose beta E1 DPCS3 Prelog phase scan: absolute phi=160.000 deg

0 1
C       -0.10912900      -1.35754000       0.57342700
C       -0.79976900      -0.55809400      -0.55526600
C       -0.14988600       0.83115600      -0.41724400
C        1.22345900       0.46167900       0.11066000
O        0.94897900      -0.51742700       1.08927800
O       -2.20462900      -0.51866400      -0.45745700
O       -0.85825200       1.61137100       0.53807700
O        1.96827800      -0.04531500      -0.96716400
H       -0.80197000      -1.56395700       1.38882600
H       -0.12588000       1.39604900      -1.34590100
H       -0.61465100       1.28806000       1.41372300
H        2.80630900      -0.36844100      -0.62291800
H        1.74229500       1.27946800       0.61621500
H        0.31500500      -2.29579600       0.21312900
H       -0.55360900      -0.98540200      -1.52660300
H       -2.41710900       0.25465100       0.08018900

T0(Inactive)=D(1,2,3,4)
T1(Inactive)=D(2,3,4,5)
T2(Inactive)=D(3,4,5,1)
T3(Inactive)=D(4,5,1,2)
T4(Inactive)=D(5,1,2,3)
QC(Inactive)=-0.3717480345*T0+0.0000000000*T1+0.3717480345*T2-0.6015009550*T3+0.6015009550*T4
QS(Inactive)=0.5116672736*T0-0.6324555320*T1+0.5116672736*T2-0.1954395076*T3-0.1954395076*T4
PhiAbs(Inactive)=ATAN2(QS,QC)
Phi(NSteps=1,StepSize=1.3630699759)=PhiAbs

--Link1--
%chk=erythrose_beta_E1_dpcs3_phi_170.chk
%mem=16GB
%nprocshared=8
#p b3lyp/def2tzvp empiricaldispersion=gd3bj opt=(addgic,calcfc,noeigentest,maxcycles=200) int=ultrafine scf=(xqc,tight) nosymm

Erythrose beta E1 DPCS3 Prelog phase scan: absolute phi=170.000 deg

0 1
C       -0.10912900      -1.35754000       0.57342700
C       -0.79976900      -0.55809400      -0.55526600
C       -0.14988600       0.83115600      -0.41724400
C        1.22345900       0.46167900       0.11066000
O        0.94897900      -0.51742700       1.08927800
O       -2.20462900      -0.51866400      -0.45745700
O       -0.85825200       1.61137100       0.53807700
O        1.96827800      -0.04531500      -0.96716400
H       -0.80197000      -1.56395700       1.38882600
H       -0.12588000       1.39604900      -1.34590100
H       -0.61465100       1.28806000       1.41372300
H        2.80630900      -0.36844100      -0.62291800
H        1.74229500       1.27946800       0.61621500
H        0.31500500      -2.29579600       0.21312900
H       -0.55360900      -0.98540200      -1.52660300
H       -2.41710900       0.25465100       0.08018900

T0(Inactive)=D(1,2,3,4)
T1(Inactive)=D(2,3,4,5)
T2(Inactive)=D(3,4,5,1)
T3(Inactive)=D(4,5,1,2)
T4(Inactive)=D(5,1,2,3)
QC(Inactive)=-0.3717480345*T0+0.0000000000*T1+0.3717480345*T2-0.6015009550*T3+0.6015009550*T4
QS(Inactive)=0.5116672736*T0-0.6324555320*T1+0.5116672736*T2-0.1954395076*T3-0.1954395076*T4
PhiAbs(Inactive)=ATAN2(QS,QC)
Phi(NSteps=1,StepSize=1.5376029011)=PhiAbs

--Link1--
%chk=erythrose_beta_E1_dpcs3_phi_180.chk
%mem=16GB
%nprocshared=8
#p b3lyp/def2tzvp empiricaldispersion=gd3bj opt=(addgic,calcfc,noeigentest,maxcycles=200) int=ultrafine scf=(xqc,tight) nosymm

Erythrose beta E1 DPCS3 Prelog phase scan: absolute phi=180.000 deg

0 1
C       -0.10912900      -1.35754000       0.57342700
C       -0.79976900      -0.55809400      -0.55526600
C       -0.14988600       0.83115600      -0.41724400
C        1.22345900       0.46167900       0.11066000
O        0.94897900      -0.51742700       1.08927800
O       -2.20462900      -0.51866400      -0.45745700
O       -0.85825200       1.61137100       0.53807700
O        1.96827800      -0.04531500      -0.96716400
H       -0.80197000      -1.56395700       1.38882600
H       -0.12588000       1.39604900      -1.34590100
H       -0.61465100       1.28806000       1.41372300
H        2.80630900      -0.36844100      -0.62291800
H        1.74229500       1.27946800       0.61621500
H        0.31500500      -2.29579600       0.21312900
H       -0.55360900      -0.98540200      -1.52660300
H       -2.41710900       0.25465100       0.08018900

T0(Inactive)=D(1,2,3,4)
T1(Inactive)=D(2,3,4,5)
T2(Inactive)=D(3,4,5,1)
T3(Inactive)=D(4,5,1,2)
T4(Inactive)=D(5,1,2,3)
QC(Inactive)=-0.3717480345*T0+0.0000000000*T1+0.3717480345*T2-0.6015009550*T3+0.6015009550*T4
QS(Inactive)=0.5116672736*T0-0.6324555320*T1+0.5116672736*T2-0.1954395076*T3-0.1954395076*T4
PhiAbs(Inactive)=ATAN2(QS,QC)
Phi(NSteps=1,StepSize=1.7121358263)=PhiAbs

--Link1--
%chk=erythrose_beta_E1_dpcs3_phi_190.chk
%mem=16GB
%nprocshared=8
#p b3lyp/def2tzvp empiricaldispersion=gd3bj opt=(addgic,calcfc,noeigentest,maxcycles=200) int=ultrafine scf=(xqc,tight) nosymm

Erythrose beta E1 DPCS3 Prelog phase scan: absolute phi=190.000 deg

0 1
C       -0.10912900      -1.35754000       0.57342700
C       -0.79976900      -0.55809400      -0.55526600
C       -0.14988600       0.83115600      -0.41724400
C        1.22345900       0.46167900       0.11066000
O        0.94897900      -0.51742700       1.08927800
O       -2.20462900      -0.51866400      -0.45745700
O       -0.85825200       1.61137100       0.53807700
O        1.96827800      -0.04531500      -0.96716400
H       -0.80197000      -1.56395700       1.38882600
H       -0.12588000       1.39604900      -1.34590100
H       -0.61465100       1.28806000       1.41372300
H        2.80630900      -0.36844100      -0.62291800
H        1.74229500       1.27946800       0.61621500
H        0.31500500      -2.29579600       0.21312900