%chk=erythrose_alpha_E2_ppcs2_phi_000.chk
%mem=16GB
%nprocshared=8
#p b3lyp/def2tzvp empiricaldispersion=gd3bj opt=(addgic,calcfc,noeigentest,maxcycles=200) int=ultrafine scf=(xqc,tight) nosymm

Erythrose alpha E2 PPCS2 Prelog phase scan: absolute phi=0.000 deg

0 1
C       -1.62214700       0.63527200      -0.25726700
C       -0.22335600       1.21357200      -0.25763600
C        0.58528300       0.06575800      -0.86784400
C       -0.12633900      -1.15423100      -0.26635100
O       -1.47705000      -0.79477900      -0.20590400
O        0.18671200       1.42102900       1.08750100
O        1.95244300       0.12803900      -0.54646100
O        0.41546700      -1.47149100       0.99300600
H       -0.03162700      -2.05851000      -0.86233200
H       -2.19075900       0.97227900       0.60724700
H        0.46748800       0.06461500      -1.95257400
H        2.08892100      -0.52894900       0.14747300
H        0.24375800      -0.70956500       1.56251800
H       -0.15329900       2.13986200      -0.82995600
H        1.14096600       1.55257100       1.05485800
H       -2.15778000       0.89660700      -1.17027800

T0(Inactive)=D(1,2,3,4)
T1(Inactive)=D(2,3,4,5)
T2(Inactive)=D(3,4,5,1)
T3(Inactive)=D(4,5,1,2)
T4(Inactive)=D(5,1,2,3)
QC(Inactive)=-0.3717480345*T0+0.0000000000*T1+0.3717480345*T2-0.6015009550*T3+0.6015009550*T4
QS(Inactive)=0.5116672736*T0-0.6324555320*T1+0.5116672736*T2-0.1954395076*T3-0.1954395076*T4
PhiAbs(Inactive)=ATAN2(QS,QC)
Phi(NSteps=1,StepSize=1.1608154810)=PhiAbs

--Link1--
%chk=erythrose_alpha_E2_ppcs2_phi_010.chk
%mem=16GB
%nprocshared=8
#p b3lyp/def2tzvp empiricaldispersion=gd3bj opt=(addgic,calcfc,noeigentest,maxcycles=200) int=ultrafine scf=(xqc,tight) nosymm

Erythrose alpha E2 PPCS2 Prelog phase scan: absolute phi=10.000 deg

0 1
C       -1.62214700       0.63527200      -0.25726700
C       -0.22335600       1.21357200      -0.25763600
C        0.58528300       0.06575800      -0.86784400
C       -0.12633900      -1.15423100      -0.26635100
O       -1.47705000      -0.79477900      -0.20590400
O        0.18671200       1.42102900       1.08750100
O        1.95244300       0.12803900      -0.54646100
O        0.41546700      -1.47149100       0.99300600
H       -0.03162700      -2.05851000      -0.86233200
H       -2.19075900       0.97227900       0.60724700
H        0.46748800       0.06461500      -1.95257400
H        2.08892100      -0.52894900       0.14747300
H        0.24375800      -0.70956500       1.56251800
H       -0.15329900       2.13986200      -0.82995600
H        1.14096600       1.55257100       1.05485800
H       -2.15778000       0.89660700      -1.17027800

T0(Inactive)=D(1,2,3,4)
T1(Inactive)=D(2,3,4,5)
T2(Inactive)=D(3,4,5,1)
T3(Inactive)=D(4,5,1,2)
T4(Inactive)=D(5,1,2,3)
QC(Inactive)=-0.3717480345*T0+0.0000000000*T1+0.3717480345*T2-0.6015009550*T3+0.6015009550*T4
QS(Inactive)=0.5116672736*T0-0.6324555320*T1+0.5116672736*T2-0.1954395076*T3-0.1954395076*T4
PhiAbs(Inactive)=ATAN2(QS,QC)
Phi(NSteps=1,StepSize=1.3353484062)=PhiAbs

--Link1--
%chk=erythrose_alpha_E2_ppcs2_phi_020.chk
%mem=16GB
%nprocshared=8
#p b3lyp/def2tzvp empiricaldispersion=gd3bj opt=(addgic,calcfc,noeigentest,maxcycles=200) int=ultrafine scf=(xqc,tight) nosymm

Erythrose alpha E2 PPCS2 Prelog phase scan: absolute phi=20.000 deg

0 1
C       -1.62214700       0.63527200      -0.25726700
C       -0.22335600       1.21357200      -0.25763600
C        0.58528300       0.06575800      -0.86784400
C       -0.12633900      -1.15423100      -0.26635100
O       -1.47705000      -0.79477900      -0.20590400
O        0.18671200       1.42102900       1.08750100
O        1.95244300       0.12803900      -0.54646100
O        0.41546700      -1.47149100       0.99300600
H       -0.03162700      -2.05851000      -0.86233200
H       -2.19075900       0.97227900       0.60724700
H        0.46748800       0.06461500      -1.95257400
H        2.08892100      -0.52894900       0.14747300
H        0.24375800      -0.70956500       1.56251800
H       -0.15329900       2.13986200      -0.82995600
H        1.14096600       1.55257100       1.05485800
H       -2.15778000       0.89660700      -1.17027800

T0(Inactive)=D(1,2,3,4)
T1(Inactive)=D(2,3,4,5)
T2(Inactive)=D(3,4,5,1)
T3(Inactive)=D(4,5,1,2)
T4(Inactive)=D(5,1,2,3)
QC(Inactive)=-0.3717480345*T0+0.0000000000*T1+0.3717480345*T2-0.6015009550*T3+0.6015009550*T4
QS(Inactive)=0.5116672736*T0-0.6324555320*T1+0.5116672736*T2-0.1954395076*T3-0.1954395076*T4
PhiAbs(Inactive)=ATAN2(QS,QC)
Phi(NSteps=1,StepSize=1.5098813314)=PhiAbs

--Link1--
%chk=erythrose_alpha_E2_ppcs2_phi_030.chk
%mem=16GB
%nprocshared=8
#p b3lyp/def2tzvp empiricaldispersion=gd3bj opt=(addgic,calcfc,noeigentest,maxcycles=200) int=ultrafine scf=(xqc,tight) nosymm

Erythrose alpha E2 PPCS2 Prelog phase scan: absolute phi=30.000 deg

0 1
C       -1.62214700       0.63527200      -0.25726700
C       -0.22335600       1.21357200      -0.25763600
C        0.58528300       0.06575800      -0.86784400
C       -0.12633900      -1.15423100      -0.26635100
O       -1.47705000      -0.79477900      -0.20590400
O        0.18671200       1.42102900       1.08750100
O        1.95244300       0.12803900      -0.54646100
O        0.41546700      -1.47149100       0.99300600
H       -0.03162700      -2.05851000      -0.86233200
H       -2.19075900       0.97227900       0.60724700
H        0.46748800       0.06461500      -1.95257400
H        2.08892100      -0.52894900       0.14747300
H        0.24375800      -0.70956500       1.56251800
H       -0.15329900       2.13986200      -0.82995600
H        1.14096600       1.55257100       1.05485800
H       -2.15778000       0.89660700      -1.17027800

T0(Inactive)=D(1,2,3,4)
T1(Inactive)=D(2,3,4,5)
T2(Inactive)=D(3,4,5,1)
T3(Inactive)=D(4,5,1,2)
T4(Inactive)=D(5,1,2,3)
QC(Inactive)=-0.3717480345*T0+0.0000000000*T1+0.3717480345*T2-0.6015009550*T3+0.6015009550*T4
QS(Inactive)=0.5116672736*T0-0.6324555320*T1+0.5116672736*T2-0.1954395076*T3-0.1954395076*T4
PhiAbs(Inactive)=ATAN2(QS,QC)
Phi(NSteps=1,StepSize=1.6844142566)=PhiAbs

--Link1--
%chk=erythrose_alpha_E2_ppcs2_phi_040.chk
%mem=16GB
%nprocshared=8
#p b3lyp/def2tzvp empiricaldispersion=gd3bj opt=(addgic,calcfc,noeigentest,maxcycles=200) int=ultrafine scf=(xqc,tight) nosymm

Erythrose alpha E2 PPCS2 Prelog phase scan: absolute phi=40.000 deg

0 1
C       -1.62214700       0.63527200      -0.25726700
C       -0.22335600       1.21357200      -0.25763600
C        0.58528300       0.06575800      -0.86784400
C       -0.12633900      -1.15423100      -0.26635100
O       -1.47705000      -0.79477900      -0.20590400
O        0.18671200       1.42102900       1.08750100
O        1.95244300       0.12803900      -0.54646100
O        0.41546700      -1.47149100       0.99300600
H       -0.03162700      -2.05851000      -0.86233200
H       -2.19075900       0.97227900       0.60724700
H        0.46748800       0.06461500      -1.95257400
H        2.08892100      -0.52894900       0.14747300
H        0.24375800      -0.70956500       1.56251800
H       -0.15329900       2.13986200      -0.82995600
H        1.14096600       1.55257100       1.05485800
H       -2.15778000       0.89660700      -1.17027800

T0(Inactive)=D(1,2,3,4)
T1(Inactive)=D(2,3,4,5)
T2(Inactive)=D(3,4,5,1)
T3(Inactive)=D(4,5,1,2)
T4(Inactive)=D(5,1,2,3)
QC(Inactive)=-0.3717480345*T0+0.0000000000*T1+0.3717480345*T2-0.6015009550*T3+0.6015009550*T4
QS(Inactive)=0.5116672736*T0-0.6324555320*T1+0.5116672736*T2-0.1954395076*T3-0.1954395076*T4
PhiAbs(Inactive)=ATAN2(QS,QC)
Phi(NSteps=1,StepSize=1.8589471818)=PhiAbs

--Link1--
%chk=erythrose_alpha_E2_ppcs2_phi_050.chk
%mem=16GB
%nprocshared=8
#p b3lyp/def2tzvp empiricaldispersion=gd3bj opt=(addgic,calcfc,noeigentest,maxcycles=200) int=ultrafine scf=(xqc,tight) nosymm

Erythrose alpha E2 PPCS2 Prelog phase scan: absolute phi=50.000 deg

0 1
C       -1.62214700       0.63527200      -0.25726700
C       -0.22335600       1.21357200      -0.25763600
C        0.58528300       0.06575800      -0.86784400
C       -0.12633900      -1.15423100      -0.26635100
O       -1.47705000      -0.79477900      -0.20590400
O        0.18671200       1.42102900       1.08750100
O        1.95244300       0.12803900      -0.54646100
O        0.41546700      -1.47149100       0.99300600
H       -0.03162700      -2.05851000      -0.86233200
H       -2.19075900       0.97227900       0.60724700
H        0.46748800       0.06461500      -1.95257400
H        2.08892100      -0.52894900       0.14747300
H        0.24375800      -0.70956500       1.56251800
H       -0.15329900       2.13986200      -0.82995600
H        1.14096600       1.55257100       1.05485800
H       -2.15778000       0.89660700      -1.17027800

T0(Inactive)=D(1,2,3,4)
T1(Inactive)=D(2,3,4,5)
T2(Inactive)=D(3,4,5,1)
T3(Inactive)=D(4,5,1,2)
T4(Inactive)=D(5,1,2,3)
QC(Inactive)=-0.3717480345*T0+0.0000000000*T1+0.3717480345*T2-0.6015009550*T3+0.6015009550*T4
QS(Inactive)=0.5116672736*T0-0.6324555320*T1+0.5116672736*T2-0.1954395076*T3-0.1954395076*T4
PhiAbs(Inactive)=ATAN2(QS,QC)
Phi(NSteps=1,StepSize=2.0334801070)=PhiAbs

--Link1--
%chk=erythrose_alpha_E2_ppcs2_phi_060.chk
%mem=16GB
%nprocshared=8
#p b3lyp/def2tzvp empiricaldispersion=gd3bj opt=(addgic,calcfc,noeigentest,maxcycles=200) int=ultrafine scf=(xqc,tight) nosymm

Erythrose alpha E2 PPCS2 Prelog phase scan: absolute phi=60.000 deg

0 1
C       -1.62214700       0.63527200      -0.25726700
C       -0.22335600       1.21357200      -0.25763600
C        0.58528300       0.06575800      -0.86784400
C       -0.12633900      -1.15423100      -0.26635100
O       -1.47705000      -0.79477900      -0.20590400
O        0.18671200       1.42102900       1.08750100
O        1.95244300       0.12803900      -0.54646100
O        0.41546700      -1.47149100       0.99300600
H       -0.03162700      -2.05851000      -0.86233200
H       -2.19075900       0.97227900       0.60724700
H        0.46748800       0.06461500      -1.95257400
H        2.08892100      -0.52894900       0.14747300
H        0.24375800      -0.70956500       1.56251800
H       -0.15329900       2.13986200      -0.82995600
H        1.14096600       1.55257100       1.05485800
H       -2.15778000       0.89660700      -1.17027800

T0(Inactive)=D(1,2,3,4)
T1(Inactive)=D(2,3,4,5)
T2(Inactive)=D(3,4,5,1)
T3(Inactive)=D(4,5,1,2)
T4(Inactive)=D(5,1,2,3)
QC(Inactive)=-0.3717480345*T0+0.0000000000*T1+0.3717480345*T2-0.6015009550*T3+0.6015009550*T4
QS(Inactive)=0.5116672736*T0-0.6324555320*T1+0.5116672736*T2-0.1954395076*T3-0.1954395076*T4
PhiAbs(Inactive)=ATAN2(QS,QC)
Phi(NSteps=1,StepSize=2.2080130322)=PhiAbs

--Link1--
%chk=erythrose_alpha_E2_ppcs2_phi_070.chk
%mem=16GB
%nprocshared=8
#p b3lyp/def2tzvp empiricaldispersion=gd3bj opt=(addgic,calcfc,noeigentest,maxcycles=200) int=ultrafine scf=(xqc,tight) nosymm

Erythrose alpha E2 PPCS2 Prelog phase scan: absolute phi=70.000 deg

0 1
C       -1.62214700       0.63527200      -0.25726700
C       -0.22335600       1.21357200      -0.25763600
C        0.58528300       0.06575800      -0.86784400
C       -0.12633900      -1.15423100      -0.26635100
O       -1.47705000      -0.79477900      -0.20590400
O        0.18671200       1.42102900       1.08750100
O        1.95244300       0.12803900      -0.54646100
O        0.41546700      -1.47149100       0.99300600
H       -0.03162700      -2.05851000      -0.86233200
H       -2.19075900       0.97227900       0.60724700
H        0.46748800       0.06461500      -1.95257400
H        2.08892100      -0.52894900       0.14747300
H        0.24375800      -0.70956500       1.56251800
H       -0.15329900       2.13986200      -0.82995600
H        1.14096600       1.55257100       1.05485800
H       -2.15778000       0.89660700      -1.17027800

T0(Inactive)=D(1,2,3,4)
T1(Inactive)=D(2,3,4,5)
T2(Inactive)=D(3,4,5,1)
T3(Inactive)=D(4,5,1,2)
T4(Inactive)=D(5,1,2,3)
QC(Inactive)=-0.3717480345*T0+0.0000000000*T1+0.3717480345*T2-0.6015009550*T3+0.6015009550*T4
QS(Inactive)=0.5116672736*T0-0.6324555320*T1+0.5116672736*T2-0.1954395076*T3-0.1954395076*T4
PhiAbs(Inactive)=ATAN2(QS,QC)
Phi(NSteps=1,StepSize=2.3825459574)=PhiAbs

--Link1--
%chk=erythrose_alpha_E2_ppcs2_phi_080.chk
%mem=16GB
%nprocshared=8
#p b3lyp/def2tzvp empiricaldispersion=gd3bj opt=(addgic,calcfc,noeigentest,maxcycles=200) int=ultrafine scf=(xqc,tight) nosymm

Erythrose alpha E2 PPCS2 Prelog phase scan: absolute phi=80.000 deg

0 1
C       -1.62214700       0.63527200      -0.25726700
C       -0.22335600       1.21357200      -0.25763600
C        0.58528300       0.06575800      -0.86784400
C       -0.12633900      -1.15423100      -0.26635100
O       -1.47705000      -0.79477900      -0.20590400
O        0.18671200       1.42102900       1.08750100
O        1.95244300       0.12803900      -0.54646100
O        0.41546700      -1.47149100       0.99300600
H       -0.03162700      -2.05851000      -0.86233200
H       -2.19075900       0.97227900       0.60724700
H        0.46748800       0.06461500      -1.95257400
H        2.08892100      -0.52894900       0.14747300
H        0.24375800      -0.70956500       1.56251800
H       -0.15329900       2.13986200      -0.82995600
H        1.14096600       1.55257100       1.05485800
H       -2.15778000       0.89660700      -1.17027800

T0(Inactive)=D(1,2,3,4)
T1(Inactive)=D(2,3,4,5)
T2(Inactive)=D(3,4,5,1)
T3(Inactive)=D(4,5,1,2)
T4(Inactive)=D(5,1,2,3)
QC(Inactive)=-0.3717480345*T0+0.0000000000*T1+0.3717480345*T2-0.6015009550*T3+0.6015009550*T4
QS(Inactive)=0.5116672736*T0-0.6324555320*T1+0.5116672736*T2-0.1954395076*T3-0.1954395076*T4
PhiAbs(Inactive)=ATAN2(QS,QC)
Phi(NSteps=1,StepSize=2.5570788826)=PhiAbs

--Link1--
%chk=erythrose_alpha_E2_ppcs2_phi_090.chk
%mem=16GB
%nprocshared=8
#p b3lyp/def2tzvp empiricaldispersion=gd3bj opt=(addgic,calcfc,noeigentest,maxcycles=200) int=ultrafine scf=(xqc,tight) nosymm

Erythrose alpha E2 PPCS2 Prelog phase scan: absolute phi=90.000 deg

0 1
C       -1.62214700       0.63527200      -0.25726700
C       -0.22335600       1.21357200      -0.25763600
C        0.58528300       0.06575800      -0.86784400
C       -0.12633900      -1.15423100      -0.26635100
O       -1.47705000      -0.79477900      -0.20590400
O        0.18671200       1.42102900       1.08750100
O        1.95244300       0.12803900      -0.54646100
O        0.41546700      -1.47149100       0.99300600
H       -0.03162700      -2.05851000      -0.86233200
H       -2.19075900       0.97227900       0.60724700
H        0.46748800       0.06461500      -1.95257400
H        2.08892100      -0.52894900       0.14747300
H        0.24375800      -0.70956500       1.56251800
H       -0.15329900       2.13986200      -0.82995600
H        1.14096600       1.55257100       1.05485800
H       -2.15778000       0.89660700      -1.17027800

T0(Inactive)=D(1,2,3,4)
T1(Inactive)=D(2,3,4,5)
T2(Inactive)=D(3,4,5,1)
T3(Inactive)=D(4,5,1,2)
T4(Inactive)=D(5,1,2,3)
QC(Inactive)=-0.3717480345*T0+0.0000000000*T1+0.3717480345*T2-0.6015009550*T3+0.6015009550*T4
QS(Inactive)=0.5116672736*T0-0.6324555320*T1+0.5116672736*T2-0.1954395076*T3-0.1954395076*T4
PhiAbs(Inactive)=ATAN2(QS,QC)
Phi(NSteps=1,StepSize=2.7316118078)=PhiAbs

--Link1--
%chk=erythrose_alpha_E2_ppcs2_phi_100.chk
%mem=16GB
%nprocshared=8
#p b3lyp/def2tzvp empiricaldispersion=gd3bj opt=(addgic,calcfc,noeigentest,maxcycles=200) int=ultrafine scf=(xqc,tight) nosymm

Erythrose alpha E2 PPCS2 Prelog phase scan: absolute phi=100.000 deg

0 1
C       -1.62214700       0.63527200      -0.25726700
C       -0.22335600       1.21357200      -0.25763600
C        0.58528300       0.06575800      -0.86784400
C       -0.12633900      -1.15423100      -0.26635100
O       -1.47705000      -0.79477900      -0.20590400
O        0.18671200       1.42102900       1.08750100
O        1.95244300       0.12803900      -0.54646100
O        0.41546700      -1.47149100       0.99300600
H       -0.03162700      -2.05851000      -0.86233200
H       -2.19075900       0.97227900       0.60724700
H        0.46748800       0.06461500      -1.95257400
H        2.08892100      -0.52894900       0.14747300
H        0.24375800      -0.70956500       1.56251800
H       -0.15329900       2.13986200      -0.82995600
H        1.14096600       1.55257100       1.05485800
H       -2.15778000       0.89660700      -1.17027800

T0(Inactive)=D(1,2,3,4)
T1(Inactive)=D(2,3,4,5)
T2(Inactive)=D(3,4,5,1)
T3(Inactive)=D(4,5,1,2)
T4(Inactive)=D(5,1,2,3)
QC(Inactive)=-0.3717480345*T0+0.0000000000*T1+0.3717480345*T2-0.6015009550*T3+0.6015009550*T4
QS(Inactive)=0.5116672736*T0-0.6324555320*T1+0.5116672736*T2-0.1954395076*T3-0.1954395076*T4
PhiAbs(Inactive)=ATAN2(QS,QC)
Phi(NSteps=1,StepSize=2.9061447330)=PhiAbs

--Link1--
%chk=erythrose_alpha_E2_ppcs2_phi_110.chk
%mem=16GB
%nprocshared=8
#p b3lyp/def2tzvp empiricaldispersion=gd3bj opt=(addgic,calcfc,noeigentest,maxcycles=200) int=ultrafine scf=(xqc,tight) nosymm

Erythrose alpha E2 PPCS2 Prelog phase scan: absolute phi=110.000 deg

0 1
C       -1.62214700       0.63527200      -0.25726700
C       -0.22335600       1.21357200      -0.25763600
C        0.58528300       0.06575800      -0.86784400
C       -0.12633900      -1.15423100      -0.26635100
O       -1.47705000      -0.79477900      -0.20590400
O        0.18671200       1.42102900       1.08750100
O        1.95244300       0.12803900      -0.54646100
O        0.41546700      -1.47149100       0.99300600
H       -0.03162700      -2.05851000      -0.86233200
H       -2.19075900       0.97227900       0.60724700
H        0.46748800       0.06461500      -1.95257400
H        2.08892100      -0.52894900       0.14747300
H        0.24375800      -0.70956500       1.56251800
H       -0.15329900       2.13986200      -0.82995600
H        1.14096600       1.55257100       1.05485800
H       -2.15778000       0.89660700      -1.17027800

T0(Inactive)=D(1,2,3,4)
T1(Inactive)=D(2,3,4,5)
T2(Inactive)=D(3,4,5,1)
T3(Inactive)=D(4,5,1,2)
T4(Inactive)=D(5,1,2,3)
QC(Inactive)=-0.3717480345*T0+0.0000000000*T1+0.3717480345*T2-0.6015009550*T3+0.6015009550*T4
QS(Inactive)=0.5116672736*T0-0.6324555320*T1+0.5116672736*T2-0.1954395076*T3-0.1954395076*T4
PhiAbs(Inactive)=ATAN2(QS,QC)
Phi(NSteps=1,StepSize=3.0806776582)=PhiAbs

--Link1--
%chk=erythrose_alpha_E2_ppcs2_phi_120.chk
%mem=16GB
%nprocshared=8
#p b3lyp/def2tzvp empiricaldispersion=gd3bj opt=(addgic,calcfc,noeigentest,maxcycles=200) int=ultrafine scf=(xqc,tight) nosymm

Erythrose alpha E2 PPCS2 Prelog phase scan: absolute phi=120.000 deg

0 1
C       -1.62214700       0.63527200      -0.25726700
C       -0.22335600       1.21357200      -0.25763600
C        0.58528300       0.06575800      -0.86784400
C       -0.12633900      -1.15423100      -0.26635100
O       -1.47705000      -0.79477900      -0.20590400
O        0.18671200       1.42102900       1.08750100
O        1.95244300       0.12803900      -0.54646100
O        0.41546700      -1.47149100       0.99300600
H       -0.03162700      -2.05851000      -0.86233200
H       -2.19075900       0.97227900       0.60724700
H        0.46748800       0.06461500      -1.95257400
H        2.08892100      -0.52894900       0.14747300
H        0.24375800      -0.70956500       1.56251800
H       -0.15329900       2.13986200      -0.82995600
H        1.14096600       1.55257100       1.05485800
H       -2.15778000       0.89660700      -1.17027800

T0(Inactive)=D(1,2,3,4)
T1(Inactive)=D(2,3,4,5)
T2(Inactive)=D(3,4,5,1)
T3(Inactive)=D(4,5,1,2)
T4(Inactive)=D(5,1,2,3)
QC(Inactive)=-0.3717480345*T0+0.0000000000*T1+0.3717480345*T2-0.6015009550*T3+0.6015009550*T4
QS(Inactive)=0.5116672736*T0-0.6324555320*T1+0.5116672736*T2-0.1954395076*T3-0.1954395076*T4
PhiAbs(Inactive)=ATAN2(QS,QC)
Phi(NSteps=1,StepSize=-3.0279747238)=PhiAbs

--Link1--
%chk=erythrose_alpha_E2_ppcs2_phi_130.chk
%mem=16GB
%nprocshared=8
#p b3lyp/def2tzvp empiricaldispersion=gd3bj opt=(addgic,calcfc,noeigentest,maxcycles=200) int=ultrafine scf=(xqc,tight) nosymm

Erythrose alpha E2 PPCS2 Prelog phase scan: absolute phi=130.000 deg

0 1
C       -1.62214700       0.63527200      -0.25726700
C       -0.22335600       1.21357200      -0.25763600
C        0.58528300       0.06575800      -0.86784400
C       -0.12633900      -1.15423100      -0.26635100
O       -1.47705000      -0.79477900      -0.20590400
O        0.18671200       1.42102900       1.08750100
O        1.95244300       0.12803900      -0.54646100
O        0.41546700      -1.47149100       0.99300600
H       -0.03162700      -2.05851000      -0.86233200
H       -2.19075900       0.97227900       0.60724700
H        0.46748800       0.06461500      -1.95257400
H        2.08892100      -0.52894900       0.14747300
H        0.24375800      -0.70956500       1.56251800
H       -0.15329900       2.13986200      -0.82995600
H        1.14096600       1.55257100       1.05485800
H       -2.15778000       0.89660700      -1.17027800

T0(Inactive)=D(1,2,3,4)
T1(Inactive)=D(2,3,4,5)
T2(Inactive)=D(3,4,5,1)
T3(Inactive)=D(4,5,1,2)
T4(Inactive)=D(5,1,2,3)
QC(Inactive)=-0.3717480345*T0+0.0000000000*T1+0.3717480345*T2-0.6015009550*T3+0.6015009550*T4
QS(Inactive)=0.5116672736*T0-0.6324555320*T1+0.5116672736*T2-0.1954395076*T3-0.1954395076*T4
PhiAbs(Inactive)=ATAN2(QS,QC)
Phi(NSteps=1,StepSize=-2.8534417986)=PhiAbs

--Link1--
%chk=erythrose_alpha_E2_ppcs2_phi_140.chk
%mem=16GB
%nprocshared=8
#p b3lyp/def2tzvp empiricaldispersion=gd3bj opt=(addgic,calcfc,noeigentest,maxcycles=200) int=ultrafine scf=(xqc,tight) nosymm

Erythrose alpha E2 PPCS2 Prelog phase scan: absolute phi=140.000 deg

0 1
C       -1.62214700       0.63527200      -0.25726700
C       -0.22335600       1.21357200      -0.25763600
C        0.58528300       0.06575800      -0.86784400
C       -0.12633900      -1.15423100      -0.26635100
O       -1.47705000      -0.79477900      -0.20590400
O        0.18671200       1.42102900       1.08750100
O        1.95244300       0.12803900      -0.54646100
O        0.41546700      -1.47149100       0.99300600
H       -0.03162700      -2.05851000      -0.86233200
H       -2.19075900       0.97227900       0.60724700
H        0.46748800       0.06461500      -1.95257400
H        2.08892100      -0.52894900       0.14747300
H        0.24375800      -0.70956500       1.56251800
H       -0.15329900       2.13986200      -0.82995600
H        1.14096600       1.55257100       1.05485800
H       -2.15778000       0.89660700      -1.17027800

T0(Inactive)=D(1,2,3,4)
T1(Inactive)=D(2,3,4,5)
T2(Inactive)=D(3,4,5,1)
T3(Inactive)=D(4,5,1,2)
T4(Inactive)=D(5,1,2,3)
QC(Inactive)=-0.3717480345*T0+0.0000000000*T1+0.3717480345*T2-0.6015009550*T3+0.6015009550*T4
QS(Inactive)=0.5116672736*T0-0.6324555320*T1+0.5116672736*T2-0.1954395076*T3-0.1954395076*T4
PhiAbs(Inactive)=ATAN2(QS,QC)
Phi(NSteps=1,StepSize=-2.6789088734)=PhiAbs

--Link1--
%chk=erythrose_alpha_E2_ppcs2_phi_150.chk
%mem=16GB
%nprocshared=8
#p b3lyp/def2tzvp empiricaldispersion=gd3bj opt=(addgic,calcfc,noeigentest,maxcycles=200) int=ultrafine scf=(xqc,tight) nosymm

Erythrose alpha E2 PPCS2 Prelog phase scan: absolute phi=150.000 deg

0 1
C       -1.62214700       0.63527200      -0.25726700
C       -0.22335600       1.21357200      -0.25763600
C        0.58528300       0.06575800      -0.86784400
C       -0.12633900      -1.15423100      -0.26635100
O       -1.47705000      -0.79477900      -0.20590400
O        0.18671200       1.42102900       1.08750100
O        1.95244300       0.12803900      -0.54646100
O        0.41546700      -1.47149100       0.99300600
H       -0.03162700      -2.05851000      -0.86233200
H       -2.19075900       0.97227900       0.60724700
H        0.46748800       0.06461500      -1.95257400
H        2.08892100      -0.52894900       0.14747300
H        0.24375800      -0.70956500       1.56251800
H       -0.15329900       2.13986200      -0.82995600
H        1.14096600       1.55257100       1.05485800
H       -2.15778000       0.89660700      -1.17027800

T0(Inactive)=D(1,2,3,4)
T1(Inactive)=D(2,3,4,5)
T2(Inactive)=D(3,4,5,1)
T3(Inactive)=D(4,5,1,2)
T4(Inactive)=D(5,1,2,3)
QC(Inactive)=-0.3717480345*T0+0.0000000000*T1+0.3717480345*T2-0.6015009550*T3+0.6015009550*T4
QS(Inactive)=0.5116672736*T0-0.6324555320*T1+0.5116672736*T2-0.1954395076*T3-0.1954395076*T4
PhiAbs(Inactive)=ATAN2(QS,QC)
Phi(NSteps=1,StepSize=-2.5043759482)=PhiAbs

--Link1--
%chk=erythrose_alpha_E2_ppcs2_phi_160.chk
%mem=16GB
%nprocshared=8
#p b3lyp/def2tzvp empiricaldispersion=gd3bj opt=(addgic,calcfc,noeigentest,maxcycles=200) int=ultrafine scf=(xqc,tight) nosymm

Erythrose alpha E2 PPCS2 Prelog phase scan: absolute phi=160.000 deg

0 1
C       -1.62214700       0.63527200      -0.25726700
C       -0.22335600       1.21357200      -0.25763600
C        0.58528300       0.06575800      -0.86784400
C       -0.12633900      -1.15423100      -0.26635100
O       -1.47705000      -0.79477900      -0.20590400
O        0.18671200       1.42102900       1.08750100
O        1.95244300       0.12803900      -0.54646100
O        0.41546700      -1.47149100       0.99300600
H       -0.03162700      -2.05851000      -0.86233200
H       -2.19075900       0.97227900       0.60724700
H        0.46748800       0.06461500      -1.95257400
H        2.08892100      -0.52894900       0.14747300
H        0.24375800      -0.70956500       1.56251800
H       -0.15329900       2.13986200      -0.82995600
H        1.14096600       1.55257100       1.05485800
H       -2.15778000       0.89660700      -1.17027800

T0(Inactive)=D(1,2,3,4)
T1(Inactive)=D(2,3,4,5)
T2(Inactive)=D(3,4,5,1)
T3(Inactive)=D(4,5,1,2)
T4(Inactive)=D(5,1,2,3)
QC(Inactive)=-0.3717480345*T0+0.0000000000*T1+0.3717480345*T2-0.6015009550*T3+0.6015009550*T4
QS(Inactive)=0.5116672736*T0-0.6324555320*T1+0.5116672736*T2-0.1954395076*T3-0.1954395076*T4
PhiAbs(Inactive)=ATAN2(QS,QC)
Phi(NSteps=1,StepSize=-2.3298430230)=PhiAbs

--Link1--
%chk=erythrose_alpha_E2_ppcs2_phi_170.chk
%mem=16GB
%nprocshared=8
#p b3lyp/def2tzvp empiricaldispersion=gd3bj opt=(addgic,calcfc,noeigentest,maxcycles=200) int=ultrafine scf=(xqc,tight) nosymm

Erythrose alpha E2 PPCS2 Prelog phase scan: absolute phi=170.000 deg

0 1
C       -1.62214700       0.63527200      -0.25726700
C       -0.22335600       1.21357200      -0.25763600
C        0.58528300       0.06575800      -0.86784400
C       -0.12633900      -1.15423100      -0.26635100
O       -1.47705000      -0.79477900      -0.20590400
O        0.18671200       1.42102900       1.08750100
O        1.95244300       0.12803900      -0.54646100
O        0.41546700      -1.47149100       0.99300600
H       -0.03162700      -2.05851000      -0.86233200
H       -2.19075900       0.97227900       0.60724700
H        0.46748800       0.06461500      -1.95257400
H        2.08892100      -0.52894900       0.14747300
H        0.24375800      -0.70956500       1.56251800
H       -0.15329900       2.13986200      -0.82995600
H        1.14096600       1.55257100       1.05485800
H       -2.15778000       0.89660700      -1.17027800

T0(Inactive)=D(1,2,3,4)
T1(Inactive)=D(2,3,4,5)
T2(Inactive)=D(3,4,5,1)
T3(Inactive)=D(4,5,1,2)
T4(Inactive)=D(5,1,2,3)
QC(Inactive)=-0.3717480345*T0+0.0000000000*T1+0.3717480345*T2-0.6015009550*T3+0.6015009550*T4
QS(Inactive)=0.5116672736*T0-0.6324555320*T1+0.5116672736*T2-0.1954395076*T3-0.1954395076*T4
PhiAbs(Inactive)=ATAN2(QS,QC)
Phi(NSteps=1,StepSize=-2.1553100978)=PhiAbs

--Link1--
%chk=erythrose_alpha_E2_ppcs2_phi_180.chk
%mem=16GB
%nprocshared=8
#p b3lyp/def2tzvp empiricaldispersion=gd3bj opt=(addgic,calcfc,noeigentest,maxcycles=200) int=ultrafine scf=(xqc,tight) nosymm

Erythrose alpha E2 PPCS2 Prelog phase scan: absolute phi=180.000 deg

0 1
C       -1.62214700       0.63527200      -0.25726700
C       -0.22335600       1.21357200      -0.25763600
C        0.58528300       0.06575800      -0.86784400
C       -0.12633900      -1.15423100      -0.26635100
O       -1.47705000      -0.79477900      -0.20590400
O        0.18671200       1.42102900       1.08750100
O        1.95244300       0.12803900      -0.54646100
O        0.41546700      -1.47149100       0.99300600
H       -0.03162700      -2.05851000      -0.86233200
H       -2.19075900       0.97227900       0.60724700
H        0.46748800       0.06461500      -1.95257400
H        2.08892100      -0.52894900       0.14747300
H        0.24375800      -0.70956500       1.56251800
H       -0.15329900       2.13986200      -0.82995600
H        1.14096600       1.55257100       1.05485800
H       -2.15778000       0.89660700      -1.17027800

T0(Inactive)=D(1,2,3,4)
T1(Inactive)=D(2,3,4,5)
T2(Inactive)=D(3,4,5,1)
T3(Inactive)=D(4,5,1,2)
T4(Inactive)=D(5,1,2,3)
QC(Inactive)=-0.3717480345*T0+0.0000000000*T1+0.3717480345*T2-0.6015009550*T3+0.6015009550*T4
QS(Inactive)=0.5116672736*T0-0.6324555320*T1+0.5116672736*T2-0.1954395076*T3-0.1954395076*T4
PhiAbs(Inactive)=ATAN2(QS,QC)
Phi(NSteps=1,StepSize=-1.9807771726)=PhiAbs

--Link1--
%chk=erythrose_alpha_E2_ppcs2_phi_190.chk
%mem=16GB
%nprocshared=8
#p b3lyp/def2tzvp empiricaldispersion=gd3bj opt=(addgic,calcfc,noeigentest,maxcycles=200) int=ultrafine scf=(xqc,tight) nosymm

Erythrose alpha E2 PPCS2 Prelog phase scan: absolute phi=190.000 deg

0 1
C       -1.62214700       0.63527200      -0.25726700
C       -0.22335600       1.21357200      -0.25763600
C        0.58528300       0.06575800      -0.86784400
C       -0.12633900      -1.15423100      -0.26635100
O       -1.47705000      -0.79477900      -0.20590400
O        0.18671200       1.42102900       1.08750100
O        1.95244300       0.12803900      -0.54646100
O        0.41546700      -1.47149100       0.99300600
H       -0.03162700      -2.05851000      -0.86233200
H       -2.19075900       0.97227900       0.60724700
H        0.46748800       0.06461500      -1.95257400
H        2.08892100      -0.52894900       0.14747300
H        0.24375800      -0.70956500       1.56251800
H       -0.15329900       2.13986200      -0.82995600