%chk=erythrose_beta_E1_ppcs2_phi_000.chk
%mem=16GB
%nprocshared=8
#p b3lyp/def2tzvp empiricaldispersion=gd3bj opt=(addgic,calcfc,noeigentest,maxcycles=200) int=ultrafine scf=(xqc,tight) nosymm

Erythrose beta E1 PPCS2 Prelog phase scan: absolute phi=0.000 deg

0 1
C       -0.08869400      -1.35926900       0.56027100
C       -0.79515900      -0.56386300      -0.55974200
C       -0.15210300       0.82866800      -0.42695100
C        1.21737600       0.46964200       0.11164800
O        0.93569500      -0.49531300       1.09732000
O       -2.19504000      -0.52491200      -0.43832300
O       -0.86792700       1.60172000       0.52293000
O        1.96551200      -0.04852700      -0.95503600
H       -0.78089600      -1.60007500       1.36361600
H       -0.12586100       1.38815800      -1.35632600
H       -0.62505900       1.27610100       1.39677000
H        2.79700500      -0.37378800      -0.60137100
H        1.73166800       1.29302300       0.60775500
H        0.36704000      -2.27455100       0.18546300
H       -0.56086200      -0.98876100      -1.53269300
H       -2.39590300       0.26093300       0.08383800

T0(Inactive)=D(1,2,3,4)
T1(Inactive)=D(2,3,4,5)
T2(Inactive)=D(3,4,5,1)
T3(Inactive)=D(4,5,1,2)
T4(Inactive)=D(5,1,2,3)
QC(Inactive)=-0.3717480345*T0+0.0000000000*T1+0.3717480345*T2-0.6015009550*T3+0.6015009550*T4
QS(Inactive)=0.5116672736*T0-0.6324555320*T1+0.5116672736*T2-0.1954395076*T3-0.1954395076*T4
PhiAbs(Inactive)=ATAN2(QS,QC)
Phi(NSteps=1,StepSize=-1.3793247101)=PhiAbs

--Link1--
%chk=erythrose_beta_E1_ppcs2_phi_010.chk
%mem=16GB
%nprocshared=8
#p b3lyp/def2tzvp empiricaldispersion=gd3bj opt=(addgic,calcfc,noeigentest,maxcycles=200) int=ultrafine scf=(xqc,tight) nosymm

Erythrose beta E1 PPCS2 Prelog phase scan: absolute phi=10.000 deg

0 1
C       -0.08869400      -1.35926900       0.56027100
C       -0.79515900      -0.56386300      -0.55974200
C       -0.15210300       0.82866800      -0.42695100
C        1.21737600       0.46964200       0.11164800
O        0.93569500      -0.49531300       1.09732000
O       -2.19504000      -0.52491200      -0.43832300
O       -0.86792700       1.60172000       0.52293000
O        1.96551200      -0.04852700      -0.95503600
H       -0.78089600      -1.60007500       1.36361600
H       -0.12586100       1.38815800      -1.35632600
H       -0.62505900       1.27610100       1.39677000
H        2.79700500      -0.37378800      -0.60137100
H        1.73166800       1.29302300       0.60775500
H        0.36704000      -2.27455100       0.18546300
H       -0.56086200      -0.98876100      -1.53269300
H       -2.39590300       0.26093300       0.08383800

T0(Inactive)=D(1,2,3,4)
T1(Inactive)=D(2,3,4,5)
T2(Inactive)=D(3,4,5,1)
T3(Inactive)=D(4,5,1,2)
T4(Inactive)=D(5,1,2,3)
QC(Inactive)=-0.3717480345*T0+0.0000000000*T1+0.3717480345*T2-0.6015009550*T3+0.6015009550*T4
QS(Inactive)=0.5116672736*T0-0.6324555320*T1+0.5116672736*T2-0.1954395076*T3-0.1954395076*T4
PhiAbs(Inactive)=ATAN2(QS,QC)
Phi(NSteps=1,StepSize=-1.2047917849)=PhiAbs

--Link1--
%chk=erythrose_beta_E1_ppcs2_phi_020.chk
%mem=16GB
%nprocshared=8
#p b3lyp/def2tzvp empiricaldispersion=gd3bj opt=(addgic,calcfc,noeigentest,maxcycles=200) int=ultrafine scf=(xqc,tight) nosymm

Erythrose beta E1 PPCS2 Prelog phase scan: absolute phi=20.000 deg

0 1
C       -0.08869400      -1.35926900       0.56027100
C       -0.79515900      -0.56386300      -0.55974200
C       -0.15210300       0.82866800      -0.42695100
C        1.21737600       0.46964200       0.11164800
O        0.93569500      -0.49531300       1.09732000
O       -2.19504000      -0.52491200      -0.43832300
O       -0.86792700       1.60172000       0.52293000
O        1.96551200      -0.04852700      -0.95503600
H       -0.78089600      -1.60007500       1.36361600
H       -0.12586100       1.38815800      -1.35632600
H       -0.62505900       1.27610100       1.39677000
H        2.79700500      -0.37378800      -0.60137100
H        1.73166800       1.29302300       0.60775500
H        0.36704000      -2.27455100       0.18546300
H       -0.56086200      -0.98876100      -1.53269300
H       -2.39590300       0.26093300       0.08383800

T0(Inactive)=D(1,2,3,4)
T1(Inactive)=D(2,3,4,5)
T2(Inactive)=D(3,4,5,1)
T3(Inactive)=D(4,5,1,2)
T4(Inactive)=D(5,1,2,3)
QC(Inactive)=-0.3717480345*T0+0.0000000000*T1+0.3717480345*T2-0.6015009550*T3+0.6015009550*T4
QS(Inactive)=0.5116672736*T0-0.6324555320*T1+0.5116672736*T2-0.1954395076*T3-0.1954395076*T4
PhiAbs(Inactive)=ATAN2(QS,QC)
Phi(NSteps=1,StepSize=-1.0302588597)=PhiAbs

--Link1--
%chk=erythrose_beta_E1_ppcs2_phi_030.chk
%mem=16GB
%nprocshared=8
#p b3lyp/def2tzvp empiricaldispersion=gd3bj opt=(addgic,calcfc,noeigentest,maxcycles=200) int=ultrafine scf=(xqc,tight) nosymm

Erythrose beta E1 PPCS2 Prelog phase scan: absolute phi=30.000 deg

0 1
C       -0.08869400      -1.35926900       0.56027100
C       -0.79515900      -0.56386300      -0.55974200
C       -0.15210300       0.82866800      -0.42695100
C        1.21737600       0.46964200       0.11164800
O        0.93569500      -0.49531300       1.09732000
O       -2.19504000      -0.52491200      -0.43832300
O       -0.86792700       1.60172000       0.52293000
O        1.96551200      -0.04852700      -0.95503600
H       -0.78089600      -1.60007500       1.36361600
H       -0.12586100       1.38815800      -1.35632600
H       -0.62505900       1.27610100       1.39677000
H        2.79700500      -0.37378800      -0.60137100
H        1.73166800       1.29302300       0.60775500
H        0.36704000      -2.27455100       0.18546300
H       -0.56086200      -0.98876100      -1.53269300
H       -2.39590300       0.26093300       0.08383800

T0(Inactive)=D(1,2,3,4)
T1(Inactive)=D(2,3,4,5)
T2(Inactive)=D(3,4,5,1)
T3(Inactive)=D(4,5,1,2)
T4(Inactive)=D(5,1,2,3)
QC(Inactive)=-0.3717480345*T0+0.0000000000*T1+0.3717480345*T2-0.6015009550*T3+0.6015009550*T4
QS(Inactive)=0.5116672736*T0-0.6324555320*T1+0.5116672736*T2-0.1954395076*T3-0.1954395076*T4
PhiAbs(Inactive)=ATAN2(QS,QC)
Phi(NSteps=1,StepSize=-0.8557259345)=PhiAbs

--Link1--
%chk=erythrose_beta_E1_ppcs2_phi_040.chk
%mem=16GB
%nprocshared=8
#p b3lyp/def2tzvp empiricaldispersion=gd3bj opt=(addgic,calcfc,noeigentest,maxcycles=200) int=ultrafine scf=(xqc,tight) nosymm

Erythrose beta E1 PPCS2 Prelog phase scan: absolute phi=40.000 deg

0 1
C       -0.08869400      -1.35926900       0.56027100
C       -0.79515900      -0.56386300      -0.55974200
C       -0.15210300       0.82866800      -0.42695100
C        1.21737600       0.46964200       0.11164800
O        0.93569500      -0.49531300       1.09732000
O       -2.19504000      -0.52491200      -0.43832300
O       -0.86792700       1.60172000       0.52293000
O        1.96551200      -0.04852700      -0.95503600
H       -0.78089600      -1.60007500       1.36361600
H       -0.12586100       1.38815800      -1.35632600
H       -0.62505900       1.27610100       1.39677000
H        2.79700500      -0.37378800      -0.60137100
H        1.73166800       1.29302300       0.60775500
H        0.36704000      -2.27455100       0.18546300
H       -0.56086200      -0.98876100      -1.53269300
H       -2.39590300       0.26093300       0.08383800

T0(Inactive)=D(1,2,3,4)
T1(Inactive)=D(2,3,4,5)
T2(Inactive)=D(3,4,5,1)
T3(Inactive)=D(4,5,1,2)
T4(Inactive)=D(5,1,2,3)
QC(Inactive)=-0.3717480345*T0+0.0000000000*T1+0.3717480345*T2-0.6015009550*T3+0.6015009550*T4
QS(Inactive)=0.5116672736*T0-0.6324555320*T1+0.5116672736*T2-0.1954395076*T3-0.1954395076*T4
PhiAbs(Inactive)=ATAN2(QS,QC)
Phi(NSteps=1,StepSize=-0.6811930093)=PhiAbs

--Link1--
%chk=erythrose_beta_E1_ppcs2_phi_050.chk
%mem=16GB
%nprocshared=8
#p b3lyp/def2tzvp empiricaldispersion=gd3bj opt=(addgic,calcfc,noeigentest,maxcycles=200) int=ultrafine scf=(xqc,tight) nosymm

Erythrose beta E1 PPCS2 Prelog phase scan: absolute phi=50.000 deg

0 1
C       -0.08869400      -1.35926900       0.56027100
C       -0.79515900      -0.56386300      -0.55974200
C       -0.15210300       0.82866800      -0.42695100
C        1.21737600       0.46964200       0.11164800
O        0.93569500      -0.49531300       1.09732000
O       -2.19504000      -0.52491200      -0.43832300
O       -0.86792700       1.60172000       0.52293000
O        1.96551200      -0.04852700      -0.95503600
H       -0.78089600      -1.60007500       1.36361600
H       -0.12586100       1.38815800      -1.35632600
H       -0.62505900       1.27610100       1.39677000
H        2.79700500      -0.37378800      -0.60137100
H        1.73166800       1.29302300       0.60775500
H        0.36704000      -2.27455100       0.18546300
H       -0.56086200      -0.98876100      -1.53269300
H       -2.39590300       0.26093300       0.08383800

T0(Inactive)=D(1,2,3,4)
T1(Inactive)=D(2,3,4,5)
T2(Inactive)=D(3,4,5,1)
T3(Inactive)=D(4,5,1,2)
T4(Inactive)=D(5,1,2,3)
QC(Inactive)=-0.3717480345*T0+0.0000000000*T1+0.3717480345*T2-0.6015009550*T3+0.6015009550*T4
QS(Inactive)=0.5116672736*T0-0.6324555320*T1+0.5116672736*T2-0.1954395076*T3-0.1954395076*T4
PhiAbs(Inactive)=ATAN2(QS,QC)
Phi(NSteps=1,StepSize=-0.5066600841)=PhiAbs

--Link1--
%chk=erythrose_beta_E1_ppcs2_phi_060.chk
%mem=16GB
%nprocshared=8
#p b3lyp/def2tzvp empiricaldispersion=gd3bj opt=(addgic,calcfc,noeigentest,maxcycles=200) int=ultrafine scf=(xqc,tight) nosymm

Erythrose beta E1 PPCS2 Prelog phase scan: absolute phi=60.000 deg

0 1
C       -0.08869400      -1.35926900       0.56027100
C       -0.79515900      -0.56386300      -0.55974200
C       -0.15210300       0.82866800      -0.42695100
C        1.21737600       0.46964200       0.11164800
O        0.93569500      -0.49531300       1.09732000
O       -2.19504000      -0.52491200      -0.43832300
O       -0.86792700       1.60172000       0.52293000
O        1.96551200      -0.04852700      -0.95503600
H       -0.78089600      -1.60007500       1.36361600
H       -0.12586100       1.38815800      -1.35632600
H       -0.62505900       1.27610100       1.39677000
H        2.79700500      -0.37378800      -0.60137100
H        1.73166800       1.29302300       0.60775500
H        0.36704000      -2.27455100       0.18546300
H       -0.56086200      -0.98876100      -1.53269300
H       -2.39590300       0.26093300       0.08383800

T0(Inactive)=D(1,2,3,4)
T1(Inactive)=D(2,3,4,5)
T2(Inactive)=D(3,4,5,1)
T3(Inactive)=D(4,5,1,2)
T4(Inactive)=D(5,1,2,3)
QC(Inactive)=-0.3717480345*T0+0.0000000000*T1+0.3717480345*T2-0.6015009550*T3+0.6015009550*T4
QS(Inactive)=0.5116672736*T0-0.6324555320*T1+0.5116672736*T2-0.1954395076*T3-0.1954395076*T4
PhiAbs(Inactive)=ATAN2(QS,QC)
Phi(NSteps=1,StepSize=-0.3321271589)=PhiAbs

--Link1--
%chk=erythrose_beta_E1_ppcs2_phi_070.chk
%mem=16GB
%nprocshared=8
#p b3lyp/def2tzvp empiricaldispersion=gd3bj opt=(addgic,calcfc,noeigentest,maxcycles=200) int=ultrafine scf=(xqc,tight) nosymm

Erythrose beta E1 PPCS2 Prelog phase scan: absolute phi=70.000 deg

0 1
C       -0.08869400      -1.35926900       0.56027100
C       -0.79515900      -0.56386300      -0.55974200
C       -0.15210300       0.82866800      -0.42695100
C        1.21737600       0.46964200       0.11164800
O        0.93569500      -0.49531300       1.09732000
O       -2.19504000      -0.52491200      -0.43832300
O       -0.86792700       1.60172000       0.52293000
O        1.96551200      -0.04852700      -0.95503600
H       -0.78089600      -1.60007500       1.36361600
H       -0.12586100       1.38815800      -1.35632600
H       -0.62505900       1.27610100       1.39677000
H        2.79700500      -0.37378800      -0.60137100
H        1.73166800       1.29302300       0.60775500
H        0.36704000      -2.27455100       0.18546300
H       -0.56086200      -0.98876100      -1.53269300
H       -2.39590300       0.26093300       0.08383800

T0(Inactive)=D(1,2,3,4)
T1(Inactive)=D(2,3,4,5)
T2(Inactive)=D(3,4,5,1)
T3(Inactive)=D(4,5,1,2)
T4(Inactive)=D(5,1,2,3)
QC(Inactive)=-0.3717480345*T0+0.0000000000*T1+0.3717480345*T2-0.6015009550*T3+0.6015009550*T4
QS(Inactive)=0.5116672736*T0-0.6324555320*T1+0.5116672736*T2-0.1954395076*T3-0.1954395076*T4
PhiAbs(Inactive)=ATAN2(QS,QC)
Phi(NSteps=1,StepSize=-0.1575942337)=PhiAbs

--Link1--
%chk=erythrose_beta_E1_ppcs2_phi_080.chk
%mem=16GB
%nprocshared=8
#p b3lyp/def2tzvp empiricaldispersion=gd3bj opt=(addgic,calcfc,noeigentest,maxcycles=200) int=ultrafine scf=(xqc,tight) nosymm

Erythrose beta E1 PPCS2 Prelog phase scan: absolute phi=80.000 deg

0 1
C       -0.08869400      -1.35926900       0.56027100
C       -0.79515900      -0.56386300      -0.55974200
C       -0.15210300       0.82866800      -0.42695100
C        1.21737600       0.46964200       0.11164800
O        0.93569500      -0.49531300       1.09732000
O       -2.19504000      -0.52491200      -0.43832300
O       -0.86792700       1.60172000       0.52293000
O        1.96551200      -0.04852700      -0.95503600
H       -0.78089600      -1.60007500       1.36361600
H       -0.12586100       1.38815800      -1.35632600
H       -0.62505900       1.27610100       1.39677000
H        2.79700500      -0.37378800      -0.60137100
H        1.73166800       1.29302300       0.60775500
H        0.36704000      -2.27455100       0.18546300
H       -0.56086200      -0.98876100      -1.53269300
H       -2.39590300       0.26093300       0.08383800

T0(Inactive)=D(1,2,3,4)
T1(Inactive)=D(2,3,4,5)
T2(Inactive)=D(3,4,5,1)
T3(Inactive)=D(4,5,1,2)
T4(Inactive)=D(5,1,2,3)
QC(Inactive)=-0.3717480345*T0+0.0000000000*T1+0.3717480345*T2-0.6015009550*T3+0.6015009550*T4
QS(Inactive)=0.5116672736*T0-0.6324555320*T1+0.5116672736*T2-0.1954395076*T3-0.1954395076*T4
PhiAbs(Inactive)=ATAN2(QS,QC)
Phi(NSteps=1,StepSize=0.0169386915)=PhiAbs

--Link1--
%chk=erythrose_beta_E1_ppcs2_phi_090.chk
%mem=16GB
%nprocshared=8
#p b3lyp/def2tzvp empiricaldispersion=gd3bj opt=(addgic,calcfc,noeigentest,maxcycles=200) int=ultrafine scf=(xqc,tight) nosymm

Erythrose beta E1 PPCS2 Prelog phase scan: absolute phi=90.000 deg

0 1
C       -0.08869400      -1.35926900       0.56027100
C       -0.79515900      -0.56386300      -0.55974200
C       -0.15210300       0.82866800      -0.42695100
C        1.21737600       0.46964200       0.11164800
O        0.93569500      -0.49531300       1.09732000
O       -2.19504000      -0.52491200      -0.43832300
O       -0.86792700       1.60172000       0.52293000
O        1.96551200      -0.04852700      -0.95503600
H       -0.78089600      -1.60007500       1.36361600
H       -0.12586100       1.38815800      -1.35632600
H       -0.62505900       1.27610100       1.39677000
H        2.79700500      -0.37378800      -0.60137100
H        1.73166800       1.29302300       0.60775500
H        0.36704000      -2.27455100       0.18546300
H       -0.56086200      -0.98876100      -1.53269300
H       -2.39590300       0.26093300       0.08383800

T0(Inactive)=D(1,2,3,4)
T1(Inactive)=D(2,3,4,5)
T2(Inactive)=D(3,4,5,1)
T3(Inactive)=D(4,5,1,2)
T4(Inactive)=D(5,1,2,3)
QC(Inactive)=-0.3717480345*T0+0.0000000000*T1+0.3717480345*T2-0.6015009550*T3+0.6015009550*T4
QS(Inactive)=0.5116672736*T0-0.6324555320*T1+0.5116672736*T2-0.1954395076*T3-0.1954395076*T4
PhiAbs(Inactive)=ATAN2(QS,QC)
Phi(NSteps=1,StepSize=0.1914716167)=PhiAbs

--Link1--
%chk=erythrose_beta_E1_ppcs2_phi_100.chk
%mem=16GB
%nprocshared=8
#p b3lyp/def2tzvp empiricaldispersion=gd3bj opt=(addgic,calcfc,noeigentest,maxcycles=200) int=ultrafine scf=(xqc,tight) nosymm

Erythrose beta E1 PPCS2 Prelog phase scan: absolute phi=100.000 deg

0 1
C       -0.08869400      -1.35926900       0.56027100
C       -0.79515900      -0.56386300      -0.55974200
C       -0.15210300       0.82866800      -0.42695100
C        1.21737600       0.46964200       0.11164800
O        0.93569500      -0.49531300       1.09732000
O       -2.19504000      -0.52491200      -0.43832300
O       -0.86792700       1.60172000       0.52293000
O        1.96551200      -0.04852700      -0.95503600
H       -0.78089600      -1.60007500       1.36361600
H       -0.12586100       1.38815800      -1.35632600
H       -0.62505900       1.27610100       1.39677000
H        2.79700500      -0.37378800      -0.60137100
H        1.73166800       1.29302300       0.60775500
H        0.36704000      -2.27455100       0.18546300
H       -0.56086200      -0.98876100      -1.53269300
H       -2.39590300       0.26093300       0.08383800

T0(Inactive)=D(1,2,3,4)
T1(Inactive)=D(2,3,4,5)
T2(Inactive)=D(3,4,5,1)
T3(Inactive)=D(4,5,1,2)
T4(Inactive)=D(5,1,2,3)
QC(Inactive)=-0.3717480345*T0+0.0000000000*T1+0.3717480345*T2-0.6015009550*T3+0.6015009550*T4
QS(Inactive)=0.5116672736*T0-0.6324555320*T1+0.5116672736*T2-0.1954395076*T3-0.1954395076*T4
PhiAbs(Inactive)=ATAN2(QS,QC)
Phi(NSteps=1,StepSize=0.3660045419)=PhiAbs

--Link1--
%chk=erythrose_beta_E1_ppcs2_phi_110.chk
%mem=16GB
%nprocshared=8
#p b3lyp/def2tzvp empiricaldispersion=gd3bj opt=(addgic,calcfc,noeigentest,maxcycles=200) int=ultrafine scf=(xqc,tight) nosymm

Erythrose beta E1 PPCS2 Prelog phase scan: absolute phi=110.000 deg

0 1
C       -0.08869400      -1.35926900       0.56027100
C       -0.79515900      -0.56386300      -0.55974200
C       -0.15210300       0.82866800      -0.42695100
C        1.21737600       0.46964200       0.11164800
O        0.93569500      -0.49531300       1.09732000
O       -2.19504000      -0.52491200      -0.43832300
O       -0.86792700       1.60172000       0.52293000
O        1.96551200      -0.04852700      -0.95503600
H       -0.78089600      -1.60007500       1.36361600
H       -0.12586100       1.38815800      -1.35632600
H       -0.62505900       1.27610100       1.39677000
H        2.79700500      -0.37378800      -0.60137100
H        1.73166800       1.29302300       0.60775500
H        0.36704000      -2.27455100       0.18546300
H       -0.56086200      -0.98876100      -1.53269300
H       -2.39590300       0.26093300       0.08383800

T0(Inactive)=D(1,2,3,4)
T1(Inactive)=D(2,3,4,5)
T2(Inactive)=D(3,4,5,1)
T3(Inactive)=D(4,5,1,2)
T4(Inactive)=D(5,1,2,3)
QC(Inactive)=-0.3717480345*T0+0.0000000000*T1+0.3717480345*T2-0.6015009550*T3+0.6015009550*T4
QS(Inactive)=0.5116672736*T0-0.6324555320*T1+0.5116672736*T2-0.1954395076*T3-0.1954395076*T4
PhiAbs(Inactive)=ATAN2(QS,QC)
Phi(NSteps=1,StepSize=0.5405374671)=PhiAbs

--Link1--
%chk=erythrose_beta_E1_ppcs2_phi_120.chk
%mem=16GB
%nprocshared=8
#p b3lyp/def2tzvp empiricaldispersion=gd3bj opt=(addgic,calcfc,noeigentest,maxcycles=200) int=ultrafine scf=(xqc,tight) nosymm

Erythrose beta E1 PPCS2 Prelog phase scan: absolute phi=120.000 deg

0 1
C       -0.08869400      -1.35926900       0.56027100
C       -0.79515900      -0.56386300      -0.55974200
C       -0.15210300       0.82866800      -0.42695100
C        1.21737600       0.46964200       0.11164800
O        0.93569500      -0.49531300       1.09732000
O       -2.19504000      -0.52491200      -0.43832300
O       -0.86792700       1.60172000       0.52293000
O        1.96551200      -0.04852700      -0.95503600
H       -0.78089600      -1.60007500       1.36361600
H       -0.12586100       1.38815800      -1.35632600
H       -0.62505900       1.27610100       1.39677000
H        2.79700500      -0.37378800      -0.60137100
H        1.73166800       1.29302300       0.60775500
H        0.36704000      -2.27455100       0.18546300
H       -0.56086200      -0.98876100      -1.53269300
H       -2.39590300       0.26093300       0.08383800

T0(Inactive)=D(1,2,3,4)
T1(Inactive)=D(2,3,4,5)
T2(Inactive)=D(3,4,5,1)
T3(Inactive)=D(4,5,1,2)
T4(Inactive)=D(5,1,2,3)
QC(Inactive)=-0.3717480345*T0+0.0000000000*T1+0.3717480345*T2-0.6015009550*T3+0.6015009550*T4
QS(Inactive)=0.5116672736*T0-0.6324555320*T1+0.5116672736*T2-0.1954395076*T3-0.1954395076*T4
PhiAbs(Inactive)=ATAN2(QS,QC)
Phi(NSteps=1,StepSize=0.7150703923)=PhiAbs

--Link1--
%chk=erythrose_beta_E1_ppcs2_phi_130.chk
%mem=16GB
%nprocshared=8
#p b3lyp/def2tzvp empiricaldispersion=gd3bj opt=(addgic,calcfc,noeigentest,maxcycles=200) int=ultrafine scf=(xqc,tight) nosymm

Erythrose beta E1 PPCS2 Prelog phase scan: absolute phi=130.000 deg

0 1
C       -0.08869400      -1.35926900       0.56027100
C       -0.79515900      -0.56386300      -0.55974200
C       -0.15210300       0.82866800      -0.42695100
C        1.21737600       0.46964200       0.11164800
O        0.93569500      -0.49531300       1.09732000
O       -2.19504000      -0.52491200      -0.43832300
O       -0.86792700       1.60172000       0.52293000
O        1.96551200      -0.04852700      -0.95503600
H       -0.78089600      -1.60007500       1.36361600
H       -0.12586100       1.38815800      -1.35632600
H       -0.62505900       1.27610100       1.39677000
H        2.79700500      -0.37378800      -0.60137100
H        1.73166800       1.29302300       0.60775500
H        0.36704000      -2.27455100       0.18546300
H       -0.56086200      -0.98876100      -1.53269300
H       -2.39590300       0.26093300       0.08383800

T0(Inactive)=D(1,2,3,4)
T1(Inactive)=D(2,3,4,5)
T2(Inactive)=D(3,4,5,1)
T3(Inactive)=D(4,5,1,2)
T4(Inactive)=D(5,1,2,3)
QC(Inactive)=-0.3717480345*T0+0.0000000000*T1+0.3717480345*T2-0.6015009550*T3+0.6015009550*T4
QS(Inactive)=0.5116672736*T0-0.6324555320*T1+0.5116672736*T2-0.1954395076*T3-0.1954395076*T4
PhiAbs(Inactive)=ATAN2(QS,QC)
Phi(NSteps=1,StepSize=0.8896033175)=PhiAbs

--Link1--
%chk=erythrose_beta_E1_ppcs2_phi_140.chk
%mem=16GB
%nprocshared=8
#p b3lyp/def2tzvp empiricaldispersion=gd3bj opt=(addgic,calcfc,noeigentest,maxcycles=200) int=ultrafine scf=(xqc,tight) nosymm

Erythrose beta E1 PPCS2 Prelog phase scan: absolute phi=140.000 deg

0 1
C       -0.08869400      -1.35926900       0.56027100
C       -0.79515900      -0.56386300      -0.55974200
C       -0.15210300       0.82866800      -0.42695100
C        1.21737600       0.46964200       0.11164800
O        0.93569500      -0.49531300       1.09732000
O       -2.19504000      -0.52491200      -0.43832300
O       -0.86792700       1.60172000       0.52293000
O        1.96551200      -0.04852700      -0.95503600
H       -0.78089600      -1.60007500       1.36361600
H       -0.12586100       1.38815800      -1.35632600
H       -0.62505900       1.27610100       1.39677000
H        2.79700500      -0.37378800      -0.60137100
H        1.73166800       1.29302300       0.60775500
H        0.36704000      -2.27455100       0.18546300
H       -0.56086200      -0.98876100      -1.53269300
H       -2.39590300       0.26093300       0.08383800

T0(Inactive)=D(1,2,3,4)
T1(Inactive)=D(2,3,4,5)
T2(Inactive)=D(3,4,5,1)
T3(Inactive)=D(4,5,1,2)
T4(Inactive)=D(5,1,2,3)
QC(Inactive)=-0.3717480345*T0+0.0000000000*T1+0.3717480345*T2-0.6015009550*T3+0.6015009550*T4
QS(Inactive)=0.5116672736*T0-0.6324555320*T1+0.5116672736*T2-0.1954395076*T3-0.1954395076*T4
PhiAbs(Inactive)=ATAN2(QS,QC)
Phi(NSteps=1,StepSize=1.0641362427)=PhiAbs

--Link1--
%chk=erythrose_beta_E1_ppcs2_phi_150.chk
%mem=16GB
%nprocshared=8
#p b3lyp/def2tzvp empiricaldispersion=gd3bj opt=(addgic,calcfc,noeigentest,maxcycles=200) int=ultrafine scf=(xqc,tight) nosymm

Erythrose beta E1 PPCS2 Prelog phase scan: absolute phi=150.000 deg

0 1
C       -0.08869400      -1.35926900       0.56027100
C       -0.79515900      -0.56386300      -0.55974200
C       -0.15210300       0.82866800      -0.42695100
C        1.21737600       0.46964200       0.11164800
O        0.93569500      -0.49531300       1.09732000
O       -2.19504000      -0.52491200      -0.43832300
O       -0.86792700       1.60172000       0.52293000
O        1.96551200      -0.04852700      -0.95503600
H       -0.78089600      -1.60007500       1.36361600
H       -0.12586100       1.38815800      -1.35632600
H       -0.62505900       1.27610100       1.39677000
H        2.79700500      -0.37378800      -0.60137100
H        1.73166800       1.29302300       0.60775500
H        0.36704000      -2.27455100       0.18546300
H       -0.56086200      -0.98876100      -1.53269300
H       -2.39590300       0.26093300       0.08383800

T0(Inactive)=D(1,2,3,4)
T1(Inactive)=D(2,3,4,5)
T2(Inactive)=D(3,4,5,1)
T3(Inactive)=D(4,5,1,2)
T4(Inactive)=D(5,1,2,3)
QC(Inactive)=-0.3717480345*T0+0.0000000000*T1+0.3717480345*T2-0.6015009550*T3+0.6015009550*T4
QS(Inactive)=0.5116672736*T0-0.6324555320*T1+0.5116672736*T2-0.1954395076*T3-0.1954395076*T4
PhiAbs(Inactive)=ATAN2(QS,QC)
Phi(NSteps=1,StepSize=1.2386691679)=PhiAbs

--Link1--
%chk=erythrose_beta_E1_ppcs2_phi_160.chk
%mem=16GB
%nprocshared=8
#p b3lyp/def2tzvp empiricaldispersion=gd3bj opt=(addgic,calcfc,noeigentest,maxcycles=200) int=ultrafine scf=(xqc,tight) nosymm

Erythrose beta E1 PPCS2 Prelog phase scan: absolute phi=160.000 deg

0 1
C       -0.08869400      -1.35926900       0.56027100
C       -0.79515900      -0.56386300      -0.55974200
C       -0.15210300       0.82866800      -0.42695100
C        1.21737600       0.46964200       0.11164800
O        0.93569500      -0.49531300       1.09732000
O       -2.19504000      -0.52491200      -0.43832300
O       -0.86792700       1.60172000       0.52293000
O        1.96551200      -0.04852700      -0.95503600
H       -0.78089600      -1.60007500       1.36361600
H       -0.12586100       1.38815800      -1.35632600
H       -0.62505900       1.27610100       1.39677000
H        2.79700500      -0.37378800      -0.60137100
H        1.73166800       1.29302300       0.60775500
H        0.36704000      -2.27455100       0.18546300
H       -0.56086200      -0.98876100      -1.53269300
H       -2.39590300       0.26093300       0.08383800

T0(Inactive)=D(1,2,3,4)
T1(Inactive)=D(2,3,4,5)
T2(Inactive)=D(3,4,5,1)
T3(Inactive)=D(4,5,1,2)
T4(Inactive)=D(5,1,2,3)
QC(Inactive)=-0.3717480345*T0+0.0000000000*T1+0.3717480345*T2-0.6015009550*T3+0.6015009550*T4
QS(Inactive)=0.5116672736*T0-0.6324555320*T1+0.5116672736*T2-0.1954395076*T3-0.1954395076*T4
PhiAbs(Inactive)=ATAN2(QS,QC)
Phi(NSteps=1,StepSize=1.4132020931)=PhiAbs

--Link1--
%chk=erythrose_beta_E1_ppcs2_phi_170.chk
%mem=16GB
%nprocshared=8
#p b3lyp/def2tzvp empiricaldispersion=gd3bj opt=(addgic,calcfc,noeigentest,maxcycles=200) int=ultrafine scf=(xqc,tight) nosymm

Erythrose beta E1 PPCS2 Prelog phase scan: absolute phi=170.000 deg

0 1
C       -0.08869400      -1.35926900       0.56027100
C       -0.79515900      -0.56386300      -0.55974200
C       -0.15210300       0.82866800      -0.42695100
C        1.21737600       0.46964200       0.11164800
O        0.93569500      -0.49531300       1.09732000
O       -2.19504000      -0.52491200      -0.43832300
O       -0.86792700       1.60172000       0.52293000
O        1.96551200      -0.04852700      -0.95503600
H       -0.78089600      -1.60007500       1.36361600
H       -0.12586100       1.38815800      -1.35632600
H       -0.62505900       1.27610100       1.39677000
H        2.79700500      -0.37378800      -0.60137100
H        1.73166800       1.29302300       0.60775500
H        0.36704000      -2.27455100       0.18546300
H       -0.56086200      -0.98876100      -1.53269300
H       -2.39590300       0.26093300       0.08383800

T0(Inactive)=D(1,2,3,4)
T1(Inactive)=D(2,3,4,5)
T2(Inactive)=D(3,4,5,1)
T3(Inactive)=D(4,5,1,2)
T4(Inactive)=D(5,1,2,3)
QC(Inactive)=-0.3717480345*T0+0.0000000000*T1+0.3717480345*T2-0.6015009550*T3+0.6015009550*T4
QS(Inactive)=0.5116672736*T0-0.6324555320*T1+0.5116672736*T2-0.1954395076*T3-0.1954395076*T4
PhiAbs(Inactive)=ATAN2(QS,QC)
Phi(NSteps=1,StepSize=1.5877350183)=PhiAbs

--Link1--
%chk=erythrose_beta_E1_ppcs2_phi_180.chk
%mem=16GB
%nprocshared=8
#p b3lyp/def2tzvp empiricaldispersion=gd3bj opt=(addgic,calcfc,noeigentest,maxcycles=200) int=ultrafine scf=(xqc,tight) nosymm

Erythrose beta E1 PPCS2 Prelog phase scan: absolute phi=180.000 deg

0 1
C       -0.08869400      -1.35926900       0.56027100
C       -0.79515900      -0.56386300      -0.55974200
C       -0.15210300       0.82866800      -0.42695100
C        1.21737600       0.46964200       0.11164800
O        0.93569500      -0.49531300       1.09732000
O       -2.19504000      -0.52491200      -0.43832300
O       -0.86792700       1.60172000       0.52293000
O        1.96551200      -0.04852700      -0.95503600
H       -0.78089600      -1.60007500       1.36361600
H       -0.12586100       1.38815800      -1.35632600
H       -0.62505900       1.27610100       1.39677000
H        2.79700500      -0.37378800      -0.60137100
H        1.73166800       1.29302300       0.60775500
H        0.36704000      -2.27455100       0.18546300
H       -0.56086200      -0.98876100      -1.53269300
H       -2.39590300       0.26093300       0.08383800

T0(Inactive)=D(1,2,3,4)
T1(Inactive)=D(2,3,4,5)
T2(Inactive)=D(3,4,5,1)
T3(Inactive)=D(4,5,1,2)
T4(Inactive)=D(5,1,2,3)
QC(Inactive)=-0.3717480345*T0+0.0000000000*T1+0.3717480345*T2-0.6015009550*T3+0.6015009550*T4
QS(Inactive)=0.5116672736*T0-0.6324555320*T1+0.5116672736*T2-0.1954395076*T3-0.1954395076*T4
PhiAbs(Inactive)=ATAN2(QS,QC)
Phi(NSteps=1,StepSize=1.7622679435)=PhiAbs

--Link1--
%chk=erythrose_beta_E1_ppcs2_phi_190.chk
%mem=16GB
%nprocshared=8
#p b3lyp/def2tzvp empiricaldispersion=gd3bj opt=(addgic,calcfc,noeigentest,maxcycles=200) int=ultrafine scf=(xqc,tight) nosymm

Erythrose beta E1 PPCS2 Prelog phase scan: absolute phi=190.000 deg

0 1
C       -0.08869400      -1.35926900       0.56027100
C       -0.79515900      -0.56386300      -0.55974200
C       -0.15210300       0.82866800      -0.42695100
C        1.21737600       0.46964200       0.11164800
O        0.93569500      -0.49531300       1.09732000
O       -2.19504000      -0.52491200      -0.43832300
O       -0.86792700       1.60172000       0.52293000
O        1.96551200      -0.04852700      -0.95503600
H       -0.78089600      -1.60007500       1.36361600
H       -0.12586100       1.38815800      -1.35632600
H       -0.62505900       1.27610100       1.39677000
H        2.79700500      -0.37378800      -0.60137100
H        1.73166800       1.29302300       0.60775500
H        0.36704000      -2.27455100       0.18546300