%chk=erythrose_alpha_E2_dpcs3_phi_000.chk
%mem=16GB
%nprocshared=8
#p b3lyp/def2tzvp empiricaldispersion=gd3bj opt=(addgic,calcfc,noeigentest,maxcycles=200) int=ultrafine scf=(xqc,tight) nosymm

Erythrose alpha E2 DPCS3 Prelog phase scan: absolute phi=0.000 deg

0 1
C       -1.64348900       0.58196400      -0.27671400
C       -0.26504300       1.21112500      -0.25379200
C        0.58987700       0.09315000      -0.86118000
C       -0.08204300      -1.15846900      -0.27278100
O       -1.44715400      -0.84327700      -0.20165700
O        0.11458400       1.43316600       1.10091400
O        1.95742000       0.20042200      -0.54171100
O        0.46887800      -1.48280900       0.98410300
H        0.04145900      -2.05236400      -0.88267300
H       -2.24807000       0.90632500       0.57048700
H        0.47540700       0.09422500      -1.94863000
H        2.11990900      -0.45058500       0.15378800
H        0.25691500      -0.74713600       1.57530900
H       -0.21961500       2.14286200      -0.82383200
H        1.06127800       1.61817600       1.08835600
H       -2.16769000       0.81351100      -1.20722200

T0(Inactive)=D(1,2,3,4)
T1(Inactive)=D(2,3,4,5)
T2(Inactive)=D(3,4,5,1)
T3(Inactive)=D(4,5,1,2)
T4(Inactive)=D(5,1,2,3)
QC(Inactive)=-0.3717480345*T0+0.0000000000*T1+0.3717480345*T2-0.6015009550*T3+0.6015009550*T4
QS(Inactive)=0.5116672736*T0-0.6324555320*T1+0.5116672736*T2-0.1954395076*T3-0.1954395076*T4
PhiAbs(Inactive)=ATAN2(QS,QC)
Phi(NSteps=1,StepSize=1.1085012762)=PhiAbs

--Link1--
%chk=erythrose_alpha_E2_dpcs3_phi_010.chk
%mem=16GB
%nprocshared=8
#p b3lyp/def2tzvp empiricaldispersion=gd3bj opt=(addgic,calcfc,noeigentest,maxcycles=200) int=ultrafine scf=(xqc,tight) nosymm

Erythrose alpha E2 DPCS3 Prelog phase scan: absolute phi=10.000 deg

0 1
C       -1.64348900       0.58196400      -0.27671400
C       -0.26504300       1.21112500      -0.25379200
C        0.58987700       0.09315000      -0.86118000
C       -0.08204300      -1.15846900      -0.27278100
O       -1.44715400      -0.84327700      -0.20165700
O        0.11458400       1.43316600       1.10091400
O        1.95742000       0.20042200      -0.54171100
O        0.46887800      -1.48280900       0.98410300
H        0.04145900      -2.05236400      -0.88267300
H       -2.24807000       0.90632500       0.57048700
H        0.47540700       0.09422500      -1.94863000
H        2.11990900      -0.45058500       0.15378800
H        0.25691500      -0.74713600       1.57530900
H       -0.21961500       2.14286200      -0.82383200
H        1.06127800       1.61817600       1.08835600
H       -2.16769000       0.81351100      -1.20722200

T0(Inactive)=D(1,2,3,4)
T1(Inactive)=D(2,3,4,5)
T2(Inactive)=D(3,4,5,1)
T3(Inactive)=D(4,5,1,2)
T4(Inactive)=D(5,1,2,3)
QC(Inactive)=-0.3717480345*T0+0.0000000000*T1+0.3717480345*T2-0.6015009550*T3+0.6015009550*T4
QS(Inactive)=0.5116672736*T0-0.6324555320*T1+0.5116672736*T2-0.1954395076*T3-0.1954395076*T4
PhiAbs(Inactive)=ATAN2(QS,QC)
Phi(NSteps=1,StepSize=1.2830342014)=PhiAbs

--Link1--
%chk=erythrose_alpha_E2_dpcs3_phi_020.chk
%mem=16GB
%nprocshared=8
#p b3lyp/def2tzvp empiricaldispersion=gd3bj opt=(addgic,calcfc,noeigentest,maxcycles=200) int=ultrafine scf=(xqc,tight) nosymm

Erythrose alpha E2 DPCS3 Prelog phase scan: absolute phi=20.000 deg

0 1
C       -1.64348900       0.58196400      -0.27671400
C       -0.26504300       1.21112500      -0.25379200
C        0.58987700       0.09315000      -0.86118000
C       -0.08204300      -1.15846900      -0.27278100
O       -1.44715400      -0.84327700      -0.20165700
O        0.11458400       1.43316600       1.10091400
O        1.95742000       0.20042200      -0.54171100
O        0.46887800      -1.48280900       0.98410300
H        0.04145900      -2.05236400      -0.88267300
H       -2.24807000       0.90632500       0.57048700
H        0.47540700       0.09422500      -1.94863000
H        2.11990900      -0.45058500       0.15378800
H        0.25691500      -0.74713600       1.57530900
H       -0.21961500       2.14286200      -0.82383200
H        1.06127800       1.61817600       1.08835600
H       -2.16769000       0.81351100      -1.20722200

T0(Inactive)=D(1,2,3,4)
T1(Inactive)=D(2,3,4,5)
T2(Inactive)=D(3,4,5,1)
T3(Inactive)=D(4,5,1,2)
T4(Inactive)=D(5,1,2,3)
QC(Inactive)=-0.3717480345*T0+0.0000000000*T1+0.3717480345*T2-0.6015009550*T3+0.6015009550*T4
QS(Inactive)=0.5116672736*T0-0.6324555320*T1+0.5116672736*T2-0.1954395076*T3-0.1954395076*T4
PhiAbs(Inactive)=ATAN2(QS,QC)
Phi(NSteps=1,StepSize=1.4575671266)=PhiAbs

--Link1--
%chk=erythrose_alpha_E2_dpcs3_phi_030.chk
%mem=16GB
%nprocshared=8
#p b3lyp/def2tzvp empiricaldispersion=gd3bj opt=(addgic,calcfc,noeigentest,maxcycles=200) int=ultrafine scf=(xqc,tight) nosymm

Erythrose alpha E2 DPCS3 Prelog phase scan: absolute phi=30.000 deg

0 1
C       -1.64348900       0.58196400      -0.27671400
C       -0.26504300       1.21112500      -0.25379200
C        0.58987700       0.09315000      -0.86118000
C       -0.08204300      -1.15846900      -0.27278100
O       -1.44715400      -0.84327700      -0.20165700
O        0.11458400       1.43316600       1.10091400
O        1.95742000       0.20042200      -0.54171100
O        0.46887800      -1.48280900       0.98410300
H        0.04145900      -2.05236400      -0.88267300
H       -2.24807000       0.90632500       0.57048700
H        0.47540700       0.09422500      -1.94863000
H        2.11990900      -0.45058500       0.15378800
H        0.25691500      -0.74713600       1.57530900
H       -0.21961500       2.14286200      -0.82383200
H        1.06127800       1.61817600       1.08835600
H       -2.16769000       0.81351100      -1.20722200

T0(Inactive)=D(1,2,3,4)
T1(Inactive)=D(2,3,4,5)
T2(Inactive)=D(3,4,5,1)
T3(Inactive)=D(4,5,1,2)
T4(Inactive)=D(5,1,2,3)
QC(Inactive)=-0.3717480345*T0+0.0000000000*T1+0.3717480345*T2-0.6015009550*T3+0.6015009550*T4
QS(Inactive)=0.5116672736*T0-0.6324555320*T1+0.5116672736*T2-0.1954395076*T3-0.1954395076*T4
PhiAbs(Inactive)=ATAN2(QS,QC)
Phi(NSteps=1,StepSize=1.6321000518)=PhiAbs

--Link1--
%chk=erythrose_alpha_E2_dpcs3_phi_040.chk
%mem=16GB
%nprocshared=8
#p b3lyp/def2tzvp empiricaldispersion=gd3bj opt=(addgic,calcfc,noeigentest,maxcycles=200) int=ultrafine scf=(xqc,tight) nosymm

Erythrose alpha E2 DPCS3 Prelog phase scan: absolute phi=40.000 deg

0 1
C       -1.64348900       0.58196400      -0.27671400
C       -0.26504300       1.21112500      -0.25379200
C        0.58987700       0.09315000      -0.86118000
C       -0.08204300      -1.15846900      -0.27278100
O       -1.44715400      -0.84327700      -0.20165700
O        0.11458400       1.43316600       1.10091400
O        1.95742000       0.20042200      -0.54171100
O        0.46887800      -1.48280900       0.98410300
H        0.04145900      -2.05236400      -0.88267300
H       -2.24807000       0.90632500       0.57048700
H        0.47540700       0.09422500      -1.94863000
H        2.11990900      -0.45058500       0.15378800
H        0.25691500      -0.74713600       1.57530900
H       -0.21961500       2.14286200      -0.82383200
H        1.06127800       1.61817600       1.08835600
H       -2.16769000       0.81351100      -1.20722200

T0(Inactive)=D(1,2,3,4)
T1(Inactive)=D(2,3,4,5)
T2(Inactive)=D(3,4,5,1)
T3(Inactive)=D(4,5,1,2)
T4(Inactive)=D(5,1,2,3)
QC(Inactive)=-0.3717480345*T0+0.0000000000*T1+0.3717480345*T2-0.6015009550*T3+0.6015009550*T4
QS(Inactive)=0.5116672736*T0-0.6324555320*T1+0.5116672736*T2-0.1954395076*T3-0.1954395076*T4
PhiAbs(Inactive)=ATAN2(QS,QC)
Phi(NSteps=1,StepSize=1.8066329770)=PhiAbs

--Link1--
%chk=erythrose_alpha_E2_dpcs3_phi_050.chk
%mem=16GB
%nprocshared=8
#p b3lyp/def2tzvp empiricaldispersion=gd3bj opt=(addgic,calcfc,noeigentest,maxcycles=200) int=ultrafine scf=(xqc,tight) nosymm

Erythrose alpha E2 DPCS3 Prelog phase scan: absolute phi=50.000 deg

0 1
C       -1.64348900       0.58196400      -0.27671400
C       -0.26504300       1.21112500      -0.25379200
C        0.58987700       0.09315000      -0.86118000
C       -0.08204300      -1.15846900      -0.27278100
O       -1.44715400      -0.84327700      -0.20165700
O        0.11458400       1.43316600       1.10091400
O        1.95742000       0.20042200      -0.54171100
O        0.46887800      -1.48280900       0.98410300
H        0.04145900      -2.05236400      -0.88267300
H       -2.24807000       0.90632500       0.57048700
H        0.47540700       0.09422500      -1.94863000
H        2.11990900      -0.45058500       0.15378800
H        0.25691500      -0.74713600       1.57530900
H       -0.21961500       2.14286200      -0.82383200
H        1.06127800       1.61817600       1.08835600
H       -2.16769000       0.81351100      -1.20722200

T0(Inactive)=D(1,2,3,4)
T1(Inactive)=D(2,3,4,5)
T2(Inactive)=D(3,4,5,1)
T3(Inactive)=D(4,5,1,2)
T4(Inactive)=D(5,1,2,3)
QC(Inactive)=-0.3717480345*T0+0.0000000000*T1+0.3717480345*T2-0.6015009550*T3+0.6015009550*T4
QS(Inactive)=0.5116672736*T0-0.6324555320*T1+0.5116672736*T2-0.1954395076*T3-0.1954395076*T4
PhiAbs(Inactive)=ATAN2(QS,QC)
Phi(NSteps=1,StepSize=1.9811659022)=PhiAbs

--Link1--
%chk=erythrose_alpha_E2_dpcs3_phi_060.chk
%mem=16GB
%nprocshared=8
#p b3lyp/def2tzvp empiricaldispersion=gd3bj opt=(addgic,calcfc,noeigentest,maxcycles=200) int=ultrafine scf=(xqc,tight) nosymm

Erythrose alpha E2 DPCS3 Prelog phase scan: absolute phi=60.000 deg

0 1
C       -1.64348900       0.58196400      -0.27671400
C       -0.26504300       1.21112500      -0.25379200
C        0.58987700       0.09315000      -0.86118000
C       -0.08204300      -1.15846900      -0.27278100
O       -1.44715400      -0.84327700      -0.20165700
O        0.11458400       1.43316600       1.10091400
O        1.95742000       0.20042200      -0.54171100
O        0.46887800      -1.48280900       0.98410300
H        0.04145900      -2.05236400      -0.88267300
H       -2.24807000       0.90632500       0.57048700
H        0.47540700       0.09422500      -1.94863000
H        2.11990900      -0.45058500       0.15378800
H        0.25691500      -0.74713600       1.57530900
H       -0.21961500       2.14286200      -0.82383200
H        1.06127800       1.61817600       1.08835600
H       -2.16769000       0.81351100      -1.20722200

T0(Inactive)=D(1,2,3,4)
T1(Inactive)=D(2,3,4,5)
T2(Inactive)=D(3,4,5,1)
T3(Inactive)=D(4,5,1,2)
T4(Inactive)=D(5,1,2,3)
QC(Inactive)=-0.3717480345*T0+0.0000000000*T1+0.3717480345*T2-0.6015009550*T3+0.6015009550*T4
QS(Inactive)=0.5116672736*T0-0.6324555320*T1+0.5116672736*T2-0.1954395076*T3-0.1954395076*T4
PhiAbs(Inactive)=ATAN2(QS,QC)
Phi(NSteps=1,StepSize=2.1556988274)=PhiAbs

--Link1--
%chk=erythrose_alpha_E2_dpcs3_phi_070.chk
%mem=16GB
%nprocshared=8
#p b3lyp/def2tzvp empiricaldispersion=gd3bj opt=(addgic,calcfc,noeigentest,maxcycles=200) int=ultrafine scf=(xqc,tight) nosymm

Erythrose alpha E2 DPCS3 Prelog phase scan: absolute phi=70.000 deg

0 1
C       -1.64348900       0.58196400      -0.27671400
C       -0.26504300       1.21112500      -0.25379200
C        0.58987700       0.09315000      -0.86118000
C       -0.08204300      -1.15846900      -0.27278100
O       -1.44715400      -0.84327700      -0.20165700
O        0.11458400       1.43316600       1.10091400
O        1.95742000       0.20042200      -0.54171100
O        0.46887800      -1.48280900       0.98410300
H        0.04145900      -2.05236400      -0.88267300
H       -2.24807000       0.90632500       0.57048700
H        0.47540700       0.09422500      -1.94863000
H        2.11990900      -0.45058500       0.15378800
H        0.25691500      -0.74713600       1.57530900
H       -0.21961500       2.14286200      -0.82383200
H        1.06127800       1.61817600       1.08835600
H       -2.16769000       0.81351100      -1.20722200

T0(Inactive)=D(1,2,3,4)
T1(Inactive)=D(2,3,4,5)
T2(Inactive)=D(3,4,5,1)
T3(Inactive)=D(4,5,1,2)
T4(Inactive)=D(5,1,2,3)
QC(Inactive)=-0.3717480345*T0+0.0000000000*T1+0.3717480345*T2-0.6015009550*T3+0.6015009550*T4
QS(Inactive)=0.5116672736*T0-0.6324555320*T1+0.5116672736*T2-0.1954395076*T3-0.1954395076*T4
PhiAbs(Inactive)=ATAN2(QS,QC)
Phi(NSteps=1,StepSize=2.3302317526)=PhiAbs

--Link1--
%chk=erythrose_alpha_E2_dpcs3_phi_080.chk
%mem=16GB
%nprocshared=8
#p b3lyp/def2tzvp empiricaldispersion=gd3bj opt=(addgic,calcfc,noeigentest,maxcycles=200) int=ultrafine scf=(xqc,tight) nosymm

Erythrose alpha E2 DPCS3 Prelog phase scan: absolute phi=80.000 deg

0 1
C       -1.64348900       0.58196400      -0.27671400
C       -0.26504300       1.21112500      -0.25379200
C        0.58987700       0.09315000      -0.86118000
C       -0.08204300      -1.15846900      -0.27278100
O       -1.44715400      -0.84327700      -0.20165700
O        0.11458400       1.43316600       1.10091400
O        1.95742000       0.20042200      -0.54171100
O        0.46887800      -1.48280900       0.98410300
H        0.04145900      -2.05236400      -0.88267300
H       -2.24807000       0.90632500       0.57048700
H        0.47540700       0.09422500      -1.94863000
H        2.11990900      -0.45058500       0.15378800
H        0.25691500      -0.74713600       1.57530900
H       -0.21961500       2.14286200      -0.82383200
H        1.06127800       1.61817600       1.08835600
H       -2.16769000       0.81351100      -1.20722200

T0(Inactive)=D(1,2,3,4)
T1(Inactive)=D(2,3,4,5)
T2(Inactive)=D(3,4,5,1)
T3(Inactive)=D(4,5,1,2)
T4(Inactive)=D(5,1,2,3)
QC(Inactive)=-0.3717480345*T0+0.0000000000*T1+0.3717480345*T2-0.6015009550*T3+0.6015009550*T4
QS(Inactive)=0.5116672736*T0-0.6324555320*T1+0.5116672736*T2-0.1954395076*T3-0.1954395076*T4
PhiAbs(Inactive)=ATAN2(QS,QC)
Phi(NSteps=1,StepSize=2.5047646778)=PhiAbs

--Link1--
%chk=erythrose_alpha_E2_dpcs3_phi_090.chk
%mem=16GB
%nprocshared=8
#p b3lyp/def2tzvp empiricaldispersion=gd3bj opt=(addgic,calcfc,noeigentest,maxcycles=200) int=ultrafine scf=(xqc,tight) nosymm

Erythrose alpha E2 DPCS3 Prelog phase scan: absolute phi=90.000 deg

0 1
C       -1.64348900       0.58196400      -0.27671400
C       -0.26504300       1.21112500      -0.25379200
C        0.58987700       0.09315000      -0.86118000
C       -0.08204300      -1.15846900      -0.27278100
O       -1.44715400      -0.84327700      -0.20165700
O        0.11458400       1.43316600       1.10091400
O        1.95742000       0.20042200      -0.54171100
O        0.46887800      -1.48280900       0.98410300
H        0.04145900      -2.05236400      -0.88267300
H       -2.24807000       0.90632500       0.57048700
H        0.47540700       0.09422500      -1.94863000
H        2.11990900      -0.45058500       0.15378800
H        0.25691500      -0.74713600       1.57530900
H       -0.21961500       2.14286200      -0.82383200
H        1.06127800       1.61817600       1.08835600
H       -2.16769000       0.81351100      -1.20722200

T0(Inactive)=D(1,2,3,4)
T1(Inactive)=D(2,3,4,5)
T2(Inactive)=D(3,4,5,1)
T3(Inactive)=D(4,5,1,2)
T4(Inactive)=D(5,1,2,3)
QC(Inactive)=-0.3717480345*T0+0.0000000000*T1+0.3717480345*T2-0.6015009550*T3+0.6015009550*T4
QS(Inactive)=0.5116672736*T0-0.6324555320*T1+0.5116672736*T2-0.1954395076*T3-0.1954395076*T4
PhiAbs(Inactive)=ATAN2(QS,QC)
Phi(NSteps=1,StepSize=2.6792976030)=PhiAbs

--Link1--
%chk=erythrose_alpha_E2_dpcs3_phi_100.chk
%mem=16GB
%nprocshared=8
#p b3lyp/def2tzvp empiricaldispersion=gd3bj opt=(addgic,calcfc,noeigentest,maxcycles=200) int=ultrafine scf=(xqc,tight) nosymm

Erythrose alpha E2 DPCS3 Prelog phase scan: absolute phi=100.000 deg

0 1
C       -1.64348900       0.58196400      -0.27671400
C       -0.26504300       1.21112500      -0.25379200
C        0.58987700       0.09315000      -0.86118000
C       -0.08204300      -1.15846900      -0.27278100
O       -1.44715400      -0.84327700      -0.20165700
O        0.11458400       1.43316600       1.10091400
O        1.95742000       0.20042200      -0.54171100
O        0.46887800      -1.48280900       0.98410300
H        0.04145900      -2.05236400      -0.88267300
H       -2.24807000       0.90632500       0.57048700
H        0.47540700       0.09422500      -1.94863000
H        2.11990900      -0.45058500       0.15378800
H        0.25691500      -0.74713600       1.57530900
H       -0.21961500       2.14286200      -0.82383200
H        1.06127800       1.61817600       1.08835600
H       -2.16769000       0.81351100      -1.20722200

T0(Inactive)=D(1,2,3,4)
T1(Inactive)=D(2,3,4,5)
T2(Inactive)=D(3,4,5,1)
T3(Inactive)=D(4,5,1,2)
T4(Inactive)=D(5,1,2,3)
QC(Inactive)=-0.3717480345*T0+0.0000000000*T1+0.3717480345*T2-0.6015009550*T3+0.6015009550*T4
QS(Inactive)=0.5116672736*T0-0.6324555320*T1+0.5116672736*T2-0.1954395076*T3-0.1954395076*T4
PhiAbs(Inactive)=ATAN2(QS,QC)
Phi(NSteps=1,StepSize=2.8538305282)=PhiAbs

--Link1--
%chk=erythrose_alpha_E2_dpcs3_phi_110.chk
%mem=16GB
%nprocshared=8
#p b3lyp/def2tzvp empiricaldispersion=gd3bj opt=(addgic,calcfc,noeigentest,maxcycles=200) int=ultrafine scf=(xqc,tight) nosymm

Erythrose alpha E2 DPCS3 Prelog phase scan: absolute phi=110.000 deg

0 1
C       -1.64348900       0.58196400      -0.27671400
C       -0.26504300       1.21112500      -0.25379200
C        0.58987700       0.09315000      -0.86118000
C       -0.08204300      -1.15846900      -0.27278100
O       -1.44715400      -0.84327700      -0.20165700
O        0.11458400       1.43316600       1.10091400
O        1.95742000       0.20042200      -0.54171100
O        0.46887800      -1.48280900       0.98410300
H        0.04145900      -2.05236400      -0.88267300
H       -2.24807000       0.90632500       0.57048700
H        0.47540700       0.09422500      -1.94863000
H        2.11990900      -0.45058500       0.15378800
H        0.25691500      -0.74713600       1.57530900
H       -0.21961500       2.14286200      -0.82383200
H        1.06127800       1.61817600       1.08835600
H       -2.16769000       0.81351100      -1.20722200

T0(Inactive)=D(1,2,3,4)
T1(Inactive)=D(2,3,4,5)
T2(Inactive)=D(3,4,5,1)
T3(Inactive)=D(4,5,1,2)
T4(Inactive)=D(5,1,2,3)
QC(Inactive)=-0.3717480345*T0+0.0000000000*T1+0.3717480345*T2-0.6015009550*T3+0.6015009550*T4
QS(Inactive)=0.5116672736*T0-0.6324555320*T1+0.5116672736*T2-0.1954395076*T3-0.1954395076*T4
PhiAbs(Inactive)=ATAN2(QS,QC)
Phi(NSteps=1,StepSize=3.0283634534)=PhiAbs

--Link1--
%chk=erythrose_alpha_E2_dpcs3_phi_120.chk
%mem=16GB
%nprocshared=8
#p b3lyp/def2tzvp empiricaldispersion=gd3bj opt=(addgic,calcfc,noeigentest,maxcycles=200) int=ultrafine scf=(xqc,tight) nosymm

Erythrose alpha E2 DPCS3 Prelog phase scan: absolute phi=120.000 deg

0 1
C       -1.64348900       0.58196400      -0.27671400
C       -0.26504300       1.21112500      -0.25379200
C        0.58987700       0.09315000      -0.86118000
C       -0.08204300      -1.15846900      -0.27278100
O       -1.44715400      -0.84327700      -0.20165700
O        0.11458400       1.43316600       1.10091400
O        1.95742000       0.20042200      -0.54171100
O        0.46887800      -1.48280900       0.98410300
H        0.04145900      -2.05236400      -0.88267300
H       -2.24807000       0.90632500       0.57048700
H        0.47540700       0.09422500      -1.94863000
H        2.11990900      -0.45058500       0.15378800
H        0.25691500      -0.74713600       1.57530900
H       -0.21961500       2.14286200      -0.82383200
H        1.06127800       1.61817600       1.08835600
H       -2.16769000       0.81351100      -1.20722200

T0(Inactive)=D(1,2,3,4)
T1(Inactive)=D(2,3,4,5)
T2(Inactive)=D(3,4,5,1)
T3(Inactive)=D(4,5,1,2)
T4(Inactive)=D(5,1,2,3)
QC(Inactive)=-0.3717480345*T0+0.0000000000*T1+0.3717480345*T2-0.6015009550*T3+0.6015009550*T4
QS(Inactive)=0.5116672736*T0-0.6324555320*T1+0.5116672736*T2-0.1954395076*T3-0.1954395076*T4
PhiAbs(Inactive)=ATAN2(QS,QC)
Phi(NSteps=1,StepSize=-3.0802889286)=PhiAbs

--Link1--
%chk=erythrose_alpha_E2_dpcs3_phi_130.chk
%mem=16GB
%nprocshared=8
#p b3lyp/def2tzvp empiricaldispersion=gd3bj opt=(addgic,calcfc,noeigentest,maxcycles=200) int=ultrafine scf=(xqc,tight) nosymm

Erythrose alpha E2 DPCS3 Prelog phase scan: absolute phi=130.000 deg

0 1
C       -1.64348900       0.58196400      -0.27671400
C       -0.26504300       1.21112500      -0.25379200
C        0.58987700       0.09315000      -0.86118000
C       -0.08204300      -1.15846900      -0.27278100
O       -1.44715400      -0.84327700      -0.20165700
O        0.11458400       1.43316600       1.10091400
O        1.95742000       0.20042200      -0.54171100
O        0.46887800      -1.48280900       0.98410300
H        0.04145900      -2.05236400      -0.88267300
H       -2.24807000       0.90632500       0.57048700
H        0.47540700       0.09422500      -1.94863000
H        2.11990900      -0.45058500       0.15378800
H        0.25691500      -0.74713600       1.57530900
H       -0.21961500       2.14286200      -0.82383200
H        1.06127800       1.61817600       1.08835600
H       -2.16769000       0.81351100      -1.20722200

T0(Inactive)=D(1,2,3,4)
T1(Inactive)=D(2,3,4,5)
T2(Inactive)=D(3,4,5,1)
T3(Inactive)=D(4,5,1,2)
T4(Inactive)=D(5,1,2,3)
QC(Inactive)=-0.3717480345*T0+0.0000000000*T1+0.3717480345*T2-0.6015009550*T3+0.6015009550*T4
QS(Inactive)=0.5116672736*T0-0.6324555320*T1+0.5116672736*T2-0.1954395076*T3-0.1954395076*T4
PhiAbs(Inactive)=ATAN2(QS,QC)
Phi(NSteps=1,StepSize=-2.9057560034)=PhiAbs

--Link1--
%chk=erythrose_alpha_E2_dpcs3_phi_140.chk
%mem=16GB
%nprocshared=8
#p b3lyp/def2tzvp empiricaldispersion=gd3bj opt=(addgic,calcfc,noeigentest,maxcycles=200) int=ultrafine scf=(xqc,tight) nosymm

Erythrose alpha E2 DPCS3 Prelog phase scan: absolute phi=140.000 deg

0 1
C       -1.64348900       0.58196400      -0.27671400
C       -0.26504300       1.21112500      -0.25379200
C        0.58987700       0.09315000      -0.86118000
C       -0.08204300      -1.15846900      -0.27278100
O       -1.44715400      -0.84327700      -0.20165700
O        0.11458400       1.43316600       1.10091400
O        1.95742000       0.20042200      -0.54171100
O        0.46887800      -1.48280900       0.98410300
H        0.04145900      -2.05236400      -0.88267300
H       -2.24807000       0.90632500       0.57048700
H        0.47540700       0.09422500      -1.94863000
H        2.11990900      -0.45058500       0.15378800
H        0.25691500      -0.74713600       1.57530900
H       -0.21961500       2.14286200      -0.82383200
H        1.06127800       1.61817600       1.08835600
H       -2.16769000       0.81351100      -1.20722200

T0(Inactive)=D(1,2,3,4)
T1(Inactive)=D(2,3,4,5)
T2(Inactive)=D(3,4,5,1)
T3(Inactive)=D(4,5,1,2)
T4(Inactive)=D(5,1,2,3)
QC(Inactive)=-0.3717480345*T0+0.0000000000*T1+0.3717480345*T2-0.6015009550*T3+0.6015009550*T4
QS(Inactive)=0.5116672736*T0-0.6324555320*T1+0.5116672736*T2-0.1954395076*T3-0.1954395076*T4
PhiAbs(Inactive)=ATAN2(QS,QC)
Phi(NSteps=1,StepSize=-2.7312230782)=PhiAbs

--Link1--
%chk=erythrose_alpha_E2_dpcs3_phi_150.chk
%mem=16GB
%nprocshared=8
#p b3lyp/def2tzvp empiricaldispersion=gd3bj opt=(addgic,calcfc,noeigentest,maxcycles=200) int=ultrafine scf=(xqc,tight) nosymm

Erythrose alpha E2 DPCS3 Prelog phase scan: absolute phi=150.000 deg

0 1
C       -1.64348900       0.58196400      -0.27671400
C       -0.26504300       1.21112500      -0.25379200
C        0.58987700       0.09315000      -0.86118000
C       -0.08204300      -1.15846900      -0.27278100
O       -1.44715400      -0.84327700      -0.20165700
O        0.11458400       1.43316600       1.10091400
O        1.95742000       0.20042200      -0.54171100
O        0.46887800      -1.48280900       0.98410300
H        0.04145900      -2.05236400      -0.88267300
H       -2.24807000       0.90632500       0.57048700
H        0.47540700       0.09422500      -1.94863000
H        2.11990900      -0.45058500       0.15378800
H        0.25691500      -0.74713600       1.57530900
H       -0.21961500       2.14286200      -0.82383200
H        1.06127800       1.61817600       1.08835600
H       -2.16769000       0.81351100      -1.20722200

T0(Inactive)=D(1,2,3,4)
T1(Inactive)=D(2,3,4,5)
T2(Inactive)=D(3,4,5,1)
T3(Inactive)=D(4,5,1,2)
T4(Inactive)=D(5,1,2,3)
QC(Inactive)=-0.3717480345*T0+0.0000000000*T1+0.3717480345*T2-0.6015009550*T3+0.6015009550*T4
QS(Inactive)=0.5116672736*T0-0.6324555320*T1+0.5116672736*T2-0.1954395076*T3-0.1954395076*T4
PhiAbs(Inactive)=ATAN2(QS,QC)
Phi(NSteps=1,StepSize=-2.5566901530)=PhiAbs

--Link1--
%chk=erythrose_alpha_E2_dpcs3_phi_160.chk
%mem=16GB
%nprocshared=8
#p b3lyp/def2tzvp empiricaldispersion=gd3bj opt=(addgic,calcfc,noeigentest,maxcycles=200) int=ultrafine scf=(xqc,tight) nosymm

Erythrose alpha E2 DPCS3 Prelog phase scan: absolute phi=160.000 deg

0 1
C       -1.64348900       0.58196400      -0.27671400
C       -0.26504300       1.21112500      -0.25379200
C        0.58987700       0.09315000      -0.86118000
C       -0.08204300      -1.15846900      -0.27278100
O       -1.44715400      -0.84327700      -0.20165700
O        0.11458400       1.43316600       1.10091400
O        1.95742000       0.20042200      -0.54171100
O        0.46887800      -1.48280900       0.98410300
H        0.04145900      -2.05236400      -0.88267300
H       -2.24807000       0.90632500       0.57048700
H        0.47540700       0.09422500      -1.94863000
H        2.11990900      -0.45058500       0.15378800
H        0.25691500      -0.74713600       1.57530900
H       -0.21961500       2.14286200      -0.82383200
H        1.06127800       1.61817600       1.08835600
H       -2.16769000       0.81351100      -1.20722200

T0(Inactive)=D(1,2,3,4)
T1(Inactive)=D(2,3,4,5)
T2(Inactive)=D(3,4,5,1)
T3(Inactive)=D(4,5,1,2)
T4(Inactive)=D(5,1,2,3)
QC(Inactive)=-0.3717480345*T0+0.0000000000*T1+0.3717480345*T2-0.6015009550*T3+0.6015009550*T4
QS(Inactive)=0.5116672736*T0-0.6324555320*T1+0.5116672736*T2-0.1954395076*T3-0.1954395076*T4
PhiAbs(Inactive)=ATAN2(QS,QC)
Phi(NSteps=1,StepSize=-2.3821572278)=PhiAbs

--Link1--
%chk=erythrose_alpha_E2_dpcs3_phi_170.chk
%mem=16GB
%nprocshared=8
#p b3lyp/def2tzvp empiricaldispersion=gd3bj opt=(addgic,calcfc,noeigentest,maxcycles=200) int=ultrafine scf=(xqc,tight) nosymm

Erythrose alpha E2 DPCS3 Prelog phase scan: absolute phi=170.000 deg

0 1
C       -1.64348900       0.58196400      -0.27671400
C       -0.26504300       1.21112500      -0.25379200
C        0.58987700       0.09315000      -0.86118000
C       -0.08204300      -1.15846900      -0.27278100
O       -1.44715400      -0.84327700      -0.20165700
O        0.11458400       1.43316600       1.10091400
O        1.95742000       0.20042200      -0.54171100
O        0.46887800      -1.48280900       0.98410300
H        0.04145900      -2.05236400      -0.88267300
H       -2.24807000       0.90632500       0.57048700
H        0.47540700       0.09422500      -1.94863000
H        2.11990900      -0.45058500       0.15378800
H        0.25691500      -0.74713600       1.57530900
H       -0.21961500       2.14286200      -0.82383200
H        1.06127800       1.61817600       1.08835600
H       -2.16769000       0.81351100      -1.20722200

T0(Inactive)=D(1,2,3,4)
T1(Inactive)=D(2,3,4,5)
T2(Inactive)=D(3,4,5,1)
T3(Inactive)=D(4,5,1,2)
T4(Inactive)=D(5,1,2,3)
QC(Inactive)=-0.3717480345*T0+0.0000000000*T1+0.3717480345*T2-0.6015009550*T3+0.6015009550*T4
QS(Inactive)=0.5116672736*T0-0.6324555320*T1+0.5116672736*T2-0.1954395076*T3-0.1954395076*T4
PhiAbs(Inactive)=ATAN2(QS,QC)
Phi(NSteps=1,StepSize=-2.2076243026)=PhiAbs

--Link1--
%chk=erythrose_alpha_E2_dpcs3_phi_180.chk
%mem=16GB
%nprocshared=8
#p b3lyp/def2tzvp empiricaldispersion=gd3bj opt=(addgic,calcfc,noeigentest,maxcycles=200) int=ultrafine scf=(xqc,tight) nosymm

Erythrose alpha E2 DPCS3 Prelog phase scan: absolute phi=180.000 deg

0 1
C       -1.64348900       0.58196400      -0.27671400
C       -0.26504300       1.21112500      -0.25379200
C        0.58987700       0.09315000      -0.86118000
C       -0.08204300      -1.15846900      -0.27278100
O       -1.44715400      -0.84327700      -0.20165700
O        0.11458400       1.43316600       1.10091400
O        1.95742000       0.20042200      -0.54171100
O        0.46887800      -1.48280900       0.98410300
H        0.04145900      -2.05236400      -0.88267300
H       -2.24807000       0.90632500       0.57048700
H        0.47540700       0.09422500      -1.94863000
H        2.11990900      -0.45058500       0.15378800
H        0.25691500      -0.74713600       1.57530900
H       -0.21961500       2.14286200      -0.82383200
H        1.06127800       1.61817600       1.08835600
H       -2.16769000       0.81351100      -1.20722200

T0(Inactive)=D(1,2,3,4)
T1(Inactive)=D(2,3,4,5)
T2(Inactive)=D(3,4,5,1)
T3(Inactive)=D(4,5,1,2)
T4(Inactive)=D(5,1,2,3)
QC(Inactive)=-0.3717480345*T0+0.0000000000*T1+0.3717480345*T2-0.6015009550*T3+0.6015009550*T4
QS(Inactive)=0.5116672736*T0-0.6324555320*T1+0.5116672736*T2-0.1954395076*T3-0.1954395076*T4
PhiAbs(Inactive)=ATAN2(QS,QC)
Phi(NSteps=1,StepSize=-2.0330913774)=PhiAbs

--Link1--
%chk=erythrose_alpha_E2_dpcs3_phi_190.chk
%mem=16GB
%nprocshared=8
#p b3lyp/def2tzvp empiricaldispersion=gd3bj opt=(addgic,calcfc,noeigentest,maxcycles=200) int=ultrafine scf=(xqc,tight) nosymm

Erythrose alpha E2 DPCS3 Prelog phase scan: absolute phi=190.000 deg

0 1
C       -1.64348900       0.58196400      -0.27671400
C       -0.26504300       1.21112500      -0.25379200
C        0.58987700       0.09315000      -0.86118000
C       -0.08204300      -1.15846900      -0.27278100
O       -1.44715400      -0.84327700      -0.20165700
O        0.11458400       1.43316600       1.10091400
O        1.95742000       0.20042200      -0.54171100
O        0.46887800      -1.48280900       0.98410300
H        0.04145900      -2.05236400      -0.88267300
H       -2.24807000       0.90632500       0.57048700
H        0.47540700       0.09422500      -1.94863000
H        2.11990900      -0.45058500       0.15378800
H        0.25691500      -0.74713600       1.57530900
H       -0.21961500       2.14286200      -0.82383200