%chk=thf_phi_000.chk
%mem=16GB
%nprocshared=8
#p b3lyp/def2tzvp empiricaldispersion=gd3bj opt=(addgic,calcfc,noeigentest,maxcycles=200) int=ultrafine scf=(xqc,tight) nosymm

THF Prelog phase scan: absolute phi=0.000 deg

0 1
O       -1.20405300      -0.00000000       0.00000000
C       -0.38354000      -1.16524300       0.13440600
C        1.03639600      -0.73226600      -0.22394700
C        1.03639600       0.73226600       0.22394700
C       -0.38354000       1.16524300      -0.13440600
H       -0.77431400      -1.94475800      -0.52227700
H       -0.43647000      -1.52688900       1.16814600
H        1.19444600      -0.79801400      -1.30276100
H        1.79749200      -1.33675000       0.26892600
H        1.79749200       1.33675000      -0.26892600
H        1.19444600       0.79801400       1.30276100
H       -0.43647000       1.52688900      -1.16814600
H       -0.77431400       1.94475800       0.52227700

T0(Inactive)=D(1,2,3,4)
T1(Inactive)=D(2,3,4,5)
T2(Inactive)=D(3,4,5,1)
T3(Inactive)=D(4,5,1,2)
T4(Inactive)=D(5,1,2,3)
QC(Inactive)=-0.3717480345*T0+0.0000000000*T1+0.3717480345*T2-0.6015009550*T3+0.6015009550*T4
QS(Inactive)=0.5116672736*T0-0.6324555320*T1+0.5116672736*T2-0.1954395076*T3-0.1954395076*T4
PhiAbs(Inactive)=ATAN2(QS,QC)
Phi(NSteps=1,StepSize=-1.5707963268)=PhiAbs

--Link1--
%chk=thf_phi_005.chk
%mem=16GB
%nprocshared=8
#p b3lyp/def2tzvp empiricaldispersion=gd3bj opt=(addgic,calcfc,noeigentest,maxcycles=200) int=ultrafine scf=(xqc,tight) nosymm

THF Prelog phase scan: absolute phi=5.000 deg

0 1
O       -1.20405300      -0.00000000       0.00000000
C       -0.38354000      -1.16524300       0.13440600
C        1.03639600      -0.73226600      -0.22394700
C        1.03639600       0.73226600       0.22394700
C       -0.38354000       1.16524300      -0.13440600
H       -0.77431400      -1.94475800      -0.52227700
H       -0.43647000      -1.52688900       1.16814600
H        1.19444600      -0.79801400      -1.30276100
H        1.79749200      -1.33675000       0.26892600
H        1.79749200       1.33675000      -0.26892600
H        1.19444600       0.79801400       1.30276100
H       -0.43647000       1.52688900      -1.16814600
H       -0.77431400       1.94475800       0.52227700

T0(Inactive)=D(1,2,3,4)
T1(Inactive)=D(2,3,4,5)
T2(Inactive)=D(3,4,5,1)
T3(Inactive)=D(4,5,1,2)
T4(Inactive)=D(5,1,2,3)
QC(Inactive)=-0.3717480345*T0+0.0000000000*T1+0.3717480345*T2-0.6015009550*T3+0.6015009550*T4
QS(Inactive)=0.5116672736*T0-0.6324555320*T1+0.5116672736*T2-0.1954395076*T3-0.1954395076*T4
PhiAbs(Inactive)=ATAN2(QS,QC)
Phi(NSteps=1,StepSize=-1.4835298642)=PhiAbs

--Link1--
%chk=thf_phi_010.chk
%mem=16GB
%nprocshared=8
#p b3lyp/def2tzvp empiricaldispersion=gd3bj opt=(addgic,calcfc,noeigentest,maxcycles=200) int=ultrafine scf=(xqc,tight) nosymm

THF Prelog phase scan: absolute phi=10.000 deg

0 1
O       -1.20405300      -0.00000000       0.00000000
C       -0.38354000      -1.16524300       0.13440600
C        1.03639600      -0.73226600      -0.22394700
C        1.03639600       0.73226600       0.22394700
C       -0.38354000       1.16524300      -0.13440600
H       -0.77431400      -1.94475800      -0.52227700
H       -0.43647000      -1.52688900       1.16814600
H        1.19444600      -0.79801400      -1.30276100
H        1.79749200      -1.33675000       0.26892600
H        1.79749200       1.33675000      -0.26892600
H        1.19444600       0.79801400       1.30276100
H       -0.43647000       1.52688900      -1.16814600
H       -0.77431400       1.94475800       0.52227700

T0(Inactive)=D(1,2,3,4)
T1(Inactive)=D(2,3,4,5)
T2(Inactive)=D(3,4,5,1)
T3(Inactive)=D(4,5,1,2)
T4(Inactive)=D(5,1,2,3)
QC(Inactive)=-0.3717480345*T0+0.0000000000*T1+0.3717480345*T2-0.6015009550*T3+0.6015009550*T4
QS(Inactive)=0.5116672736*T0-0.6324555320*T1+0.5116672736*T2-0.1954395076*T3-0.1954395076*T4
PhiAbs(Inactive)=ATAN2(QS,QC)
Phi(NSteps=1,StepSize=-1.3962634016)=PhiAbs

--Link1--
%chk=thf_phi_015.chk
%mem=16GB
%nprocshared=8
#p b3lyp/def2tzvp empiricaldispersion=gd3bj opt=(addgic,calcfc,noeigentest,maxcycles=200) int=ultrafine scf=(xqc,tight) nosymm

THF Prelog phase scan: absolute phi=15.000 deg

0 1
O       -1.20405300      -0.00000000       0.00000000
C       -0.38354000      -1.16524300       0.13440600
C        1.03639600      -0.73226600      -0.22394700
C        1.03639600       0.73226600       0.22394700
C       -0.38354000       1.16524300      -0.13440600
H       -0.77431400      -1.94475800      -0.52227700
H       -0.43647000      -1.52688900       1.16814600
H        1.19444600      -0.79801400      -1.30276100
H        1.79749200      -1.33675000       0.26892600
H        1.79749200       1.33675000      -0.26892600
H        1.19444600       0.79801400       1.30276100
H       -0.43647000       1.52688900      -1.16814600
H       -0.77431400       1.94475800       0.52227700

T0(Inactive)=D(1,2,3,4)
T1(Inactive)=D(2,3,4,5)
T2(Inactive)=D(3,4,5,1)
T3(Inactive)=D(4,5,1,2)
T4(Inactive)=D(5,1,2,3)
QC(Inactive)=-0.3717480345*T0+0.0000000000*T1+0.3717480345*T2-0.6015009550*T3+0.6015009550*T4
QS(Inactive)=0.5116672736*T0-0.6324555320*T1+0.5116672736*T2-0.1954395076*T3-0.1954395076*T4
PhiAbs(Inactive)=ATAN2(QS,QC)
Phi(NSteps=1,StepSize=-1.3089969390)=PhiAbs

--Link1--
%chk=thf_phi_020.chk
%mem=16GB
%nprocshared=8
#p b3lyp/def2tzvp empiricaldispersion=gd3bj opt=(addgic,calcfc,noeigentest,maxcycles=200) int=ultrafine scf=(xqc,tight) nosymm

THF Prelog phase scan: absolute phi=20.000 deg

0 1
O       -1.20405300      -0.00000000       0.00000000
C       -0.38354000      -1.16524300       0.13440600
C        1.03639600      -0.73226600      -0.22394700
C        1.03639600       0.73226600       0.22394700
C       -0.38354000       1.16524300      -0.13440600
H       -0.77431400      -1.94475800      -0.52227700
H       -0.43647000      -1.52688900       1.16814600
H        1.19444600      -0.79801400      -1.30276100
H        1.79749200      -1.33675000       0.26892600
H        1.79749200       1.33675000      -0.26892600
H        1.19444600       0.79801400       1.30276100
H       -0.43647000       1.52688900      -1.16814600
H       -0.77431400       1.94475800       0.52227700

T0(Inactive)=D(1,2,3,4)
T1(Inactive)=D(2,3,4,5)
T2(Inactive)=D(3,4,5,1)
T3(Inactive)=D(4,5,1,2)
T4(Inactive)=D(5,1,2,3)
QC(Inactive)=-0.3717480345*T0+0.0000000000*T1+0.3717480345*T2-0.6015009550*T3+0.6015009550*T4
QS(Inactive)=0.5116672736*T0-0.6324555320*T1+0.5116672736*T2-0.1954395076*T3-0.1954395076*T4
PhiAbs(Inactive)=ATAN2(QS,QC)
Phi(NSteps=1,StepSize=-1.2217304764)=PhiAbs

--Link1--
%chk=thf_phi_025.chk
%mem=16GB
%nprocshared=8
#p b3lyp/def2tzvp empiricaldispersion=gd3bj opt=(addgic,calcfc,noeigentest,maxcycles=200) int=ultrafine scf=(xqc,tight) nosymm

THF Prelog phase scan: absolute phi=25.000 deg

0 1
O       -1.20405300      -0.00000000       0.00000000
C       -0.38354000      -1.16524300       0.13440600
C        1.03639600      -0.73226600      -0.22394700
C        1.03639600       0.73226600       0.22394700
C       -0.38354000       1.16524300      -0.13440600
H       -0.77431400      -1.94475800      -0.52227700
H       -0.43647000      -1.52688900       1.16814600
H        1.19444600      -0.79801400      -1.30276100
H        1.79749200      -1.33675000       0.26892600
H        1.79749200       1.33675000      -0.26892600
H        1.19444600       0.79801400       1.30276100
H       -0.43647000       1.52688900      -1.16814600
H       -0.77431400       1.94475800       0.52227700

T0(Inactive)=D(1,2,3,4)
T1(Inactive)=D(2,3,4,5)
T2(Inactive)=D(3,4,5,1)
T3(Inactive)=D(4,5,1,2)
T4(Inactive)=D(5,1,2,3)
QC(Inactive)=-0.3717480345*T0+0.0000000000*T1+0.3717480345*T2-0.6015009550*T3+0.6015009550*T4
QS(Inactive)=0.5116672736*T0-0.6324555320*T1+0.5116672736*T2-0.1954395076*T3-0.1954395076*T4
PhiAbs(Inactive)=ATAN2(QS,QC)
Phi(NSteps=1,StepSize=-1.1344640138)=PhiAbs

--Link1--
%chk=thf_phi_030.chk
%mem=16GB
%nprocshared=8
#p b3lyp/def2tzvp empiricaldispersion=gd3bj opt=(addgic,calcfc,noeigentest,maxcycles=200) int=ultrafine scf=(xqc,tight) nosymm

THF Prelog phase scan: absolute phi=30.000 deg

0 1
O       -1.20405300      -0.00000000       0.00000000
C       -0.38354000      -1.16524300       0.13440600
C        1.03639600      -0.73226600      -0.22394700
C        1.03639600       0.73226600       0.22394700
C       -0.38354000       1.16524300      -0.13440600
H       -0.77431400      -1.94475800      -0.52227700
H       -0.43647000      -1.52688900       1.16814600
H        1.19444600      -0.79801400      -1.30276100
H        1.79749200      -1.33675000       0.26892600
H        1.79749200       1.33675000      -0.26892600
H        1.19444600       0.79801400       1.30276100
H       -0.43647000       1.52688900      -1.16814600
H       -0.77431400       1.94475800       0.52227700

T0(Inactive)=D(1,2,3,4)
T1(Inactive)=D(2,3,4,5)
T2(Inactive)=D(3,4,5,1)
T3(Inactive)=D(4,5,1,2)
T4(Inactive)=D(5,1,2,3)
QC(Inactive)=-0.3717480345*T0+0.0000000000*T1+0.3717480345*T2-0.6015009550*T3+0.6015009550*T4
QS(Inactive)=0.5116672736*T0-0.6324555320*T1+0.5116672736*T2-0.1954395076*T3-0.1954395076*T4
PhiAbs(Inactive)=ATAN2(QS,QC)
Phi(NSteps=1,StepSize=-1.0471975512)=PhiAbs

--Link1--
%chk=thf_phi_035.chk
%mem=16GB
%nprocshared=8
#p b3lyp/def2tzvp empiricaldispersion=gd3bj opt=(addgic,calcfc,noeigentest,maxcycles=200) int=ultrafine scf=(xqc,tight) nosymm

THF Prelog phase scan: absolute phi=35.000 deg

0 1
O       -1.20405300      -0.00000000       0.00000000
C       -0.38354000      -1.16524300       0.13440600
C        1.03639600      -0.73226600      -0.22394700
C        1.03639600       0.73226600       0.22394700
C       -0.38354000       1.16524300      -0.13440600
H       -0.77431400      -1.94475800      -0.52227700
H       -0.43647000      -1.52688900       1.16814600
H        1.19444600      -0.79801400      -1.30276100
H        1.79749200      -1.33675000       0.26892600
H        1.79749200       1.33675000      -0.26892600
H        1.19444600       0.79801400       1.30276100
H       -0.43647000       1.52688900      -1.16814600
H       -0.77431400       1.94475800       0.52227700

T0(Inactive)=D(1,2,3,4)
T1(Inactive)=D(2,3,4,5)
T2(Inactive)=D(3,4,5,1)
T3(Inactive)=D(4,5,1,2)
T4(Inactive)=D(5,1,2,3)
QC(Inactive)=-0.3717480345*T0+0.0000000000*T1+0.3717480345*T2-0.6015009550*T3+0.6015009550*T4
QS(Inactive)=0.5116672736*T0-0.6324555320*T1+0.5116672736*T2-0.1954395076*T3-0.1954395076*T4
PhiAbs(Inactive)=ATAN2(QS,QC)
Phi(NSteps=1,StepSize=-0.9599310886)=PhiAbs

--Link1--
%chk=thf_phi_040.chk
%mem=16GB
%nprocshared=8
#p b3lyp/def2tzvp empiricaldispersion=gd3bj opt=(addgic,calcfc,noeigentest,maxcycles=200) int=ultrafine scf=(xqc,tight) nosymm

THF Prelog phase scan: absolute phi=40.000 deg

0 1
O       -1.20405300      -0.00000000       0.00000000
C       -0.38354000      -1.16524300       0.13440600
C        1.03639600      -0.73226600      -0.22394700
C        1.03639600       0.73226600       0.22394700
C       -0.38354000       1.16524300      -0.13440600
H       -0.77431400      -1.94475800      -0.52227700
H       -0.43647000      -1.52688900       1.16814600
H        1.19444600      -0.79801400      -1.30276100
H        1.79749200      -1.33675000       0.26892600
H        1.79749200       1.33675000      -0.26892600
H        1.19444600       0.79801400       1.30276100
H       -0.43647000       1.52688900      -1.16814600
H       -0.77431400       1.94475800       0.52227700

T0(Inactive)=D(1,2,3,4)
T1(Inactive)=D(2,3,4,5)
T2(Inactive)=D(3,4,5,1)
T3(Inactive)=D(4,5,1,2)
T4(Inactive)=D(5,1,2,3)
QC(Inactive)=-0.3717480345*T0+0.0000000000*T1+0.3717480345*T2-0.6015009550*T3+0.6015009550*T4
QS(Inactive)=0.5116672736*T0-0.6324555320*T1+0.5116672736*T2-0.1954395076*T3-0.1954395076*T4
PhiAbs(Inactive)=ATAN2(QS,QC)
Phi(NSteps=1,StepSize=-0.8726646260)=PhiAbs

--Link1--
%chk=thf_phi_045.chk
%mem=16GB
%nprocshared=8
#p b3lyp/def2tzvp empiricaldispersion=gd3bj opt=(addgic,calcfc,noeigentest,maxcycles=200) int=ultrafine scf=(xqc,tight) nosymm

THF Prelog phase scan: absolute phi=45.000 deg

0 1
O       -1.20405300      -0.00000000       0.00000000
C       -0.38354000      -1.16524300       0.13440600
C        1.03639600      -0.73226600      -0.22394700
C        1.03639600       0.73226600       0.22394700
C       -0.38354000       1.16524300      -0.13440600
H       -0.77431400      -1.94475800      -0.52227700
H       -0.43647000      -1.52688900       1.16814600
H        1.19444600      -0.79801400      -1.30276100
H        1.79749200      -1.33675000       0.26892600
H        1.79749200       1.33675000      -0.26892600
H        1.19444600       0.79801400       1.30276100
H       -0.43647000       1.52688900      -1.16814600
H       -0.77431400       1.94475800       0.52227700

T0(Inactive)=D(1,2,3,4)
T1(Inactive)=D(2,3,4,5)
T2(Inactive)=D(3,4,5,1)
T3(Inactive)=D(4,5,1,2)
T4(Inactive)=D(5,1,2,3)
QC(Inactive)=-0.3717480345*T0+0.0000000000*T1+0.3717480345*T2-0.6015009550*T3+0.6015009550*T4
QS(Inactive)=0.5116672736*T0-0.6324555320*T1+0.5116672736*T2-0.1954395076*T3-0.1954395076*T4
PhiAbs(Inactive)=ATAN2(QS,QC)
Phi(NSteps=1,StepSize=-0.7853981634)=PhiAbs

--Link1--
%chk=thf_phi_050.chk
%mem=16GB
%nprocshared=8
#p b3lyp/def2tzvp empiricaldispersion=gd3bj opt=(addgic,calcfc,noeigentest,maxcycles=200) int=ultrafine scf=(xqc,tight) nosymm

THF Prelog phase scan: absolute phi=50.000 deg

0 1
O       -1.20405300      -0.00000000       0.00000000
C       -0.38354000      -1.16524300       0.13440600
C        1.03639600      -0.73226600      -0.22394700
C        1.03639600       0.73226600       0.22394700
C       -0.38354000       1.16524300      -0.13440600
H       -0.77431400      -1.94475800      -0.52227700
H       -0.43647000      -1.52688900       1.16814600
H        1.19444600      -0.79801400      -1.30276100
H        1.79749200      -1.33675000       0.26892600
H        1.79749200       1.33675000      -0.26892600
H        1.19444600       0.79801400       1.30276100
H       -0.43647000       1.52688900      -1.16814600
H       -0.77431400       1.94475800       0.52227700

T0(Inactive)=D(1,2,3,4)
T1(Inactive)=D(2,3,4,5)
T2(Inactive)=D(3,4,5,1)
T3(Inactive)=D(4,5,1,2)
T4(Inactive)=D(5,1,2,3)
QC(Inactive)=-0.3717480345*T0+0.0000000000*T1+0.3717480345*T2-0.6015009550*T3+0.6015009550*T4
QS(Inactive)=0.5116672736*T0-0.6324555320*T1+0.5116672736*T2-0.1954395076*T3-0.1954395076*T4
PhiAbs(Inactive)=ATAN2(QS,QC)
Phi(NSteps=1,StepSize=-0.6981317008)=PhiAbs

--Link1--
%chk=thf_phi_055.chk
%mem=16GB
%nprocshared=8
#p b3lyp/def2tzvp empiricaldispersion=gd3bj opt=(addgic,calcfc,noeigentest,maxcycles=200) int=ultrafine scf=(xqc,tight) nosymm

THF Prelog phase scan: absolute phi=55.000 deg

0 1
O       -1.20405300      -0.00000000       0.00000000
C       -0.38354000      -1.16524300       0.13440600
C        1.03639600      -0.73226600      -0.22394700
C        1.03639600       0.73226600       0.22394700
C       -0.38354000       1.16524300      -0.13440600
H       -0.77431400      -1.94475800      -0.52227700
H       -0.43647000      -1.52688900       1.16814600
H        1.19444600      -0.79801400      -1.30276100
H        1.79749200      -1.33675000       0.26892600
H        1.79749200       1.33675000      -0.26892600
H        1.19444600       0.79801400       1.30276100
H       -0.43647000       1.52688900      -1.16814600
H       -0.77431400       1.94475800       0.52227700

T0(Inactive)=D(1,2,3,4)
T1(Inactive)=D(2,3,4,5)
T2(Inactive)=D(3,4,5,1)
T3(Inactive)=D(4,5,1,2)
T4(Inactive)=D(5,1,2,3)
QC(Inactive)=-0.3717480345*T0+0.0000000000*T1+0.3717480345*T2-0.6015009550*T3+0.6015009550*T4
QS(Inactive)=0.5116672736*T0-0.6324555320*T1+0.5116672736*T2-0.1954395076*T3-0.1954395076*T4
PhiAbs(Inactive)=ATAN2(QS,QC)
Phi(NSteps=1,StepSize=-0.6108652382)=PhiAbs

--Link1--
%chk=thf_phi_060.chk
%mem=16GB
%nprocshared=8
#p b3lyp/def2tzvp empiricaldispersion=gd3bj opt=(addgic,calcfc,noeigentest,maxcycles=200) int=ultrafine scf=(xqc,tight) nosymm

THF Prelog phase scan: absolute phi=60.000 deg

0 1
O       -1.20405300      -0.00000000       0.00000000
C       -0.38354000      -1.16524300       0.13440600
C        1.03639600      -0.73226600      -0.22394700
C        1.03639600       0.73226600       0.22394700
C       -0.38354000       1.16524300      -0.13440600
H       -0.77431400      -1.94475800      -0.52227700
H       -0.43647000      -1.52688900       1.16814600
H        1.19444600      -0.79801400      -1.30276100
H        1.79749200      -1.33675000       0.26892600
H        1.79749200       1.33675000      -0.26892600
H        1.19444600       0.79801400       1.30276100
H       -0.43647000       1.52688900      -1.16814600
H       -0.77431400       1.94475800       0.52227700

T0(Inactive)=D(1,2,3,4)
T1(Inactive)=D(2,3,4,5)
T2(Inactive)=D(3,4,5,1)
T3(Inactive)=D(4,5,1,2)
T4(Inactive)=D(5,1,2,3)
QC(Inactive)=-0.3717480345*T0+0.0000000000*T1+0.3717480345*T2-0.6015009550*T3+0.6015009550*T4
QS(Inactive)=0.5116672736*T0-0.6324555320*T1+0.5116672736*T2-0.1954395076*T3-0.1954395076*T4
PhiAbs(Inactive)=ATAN2(QS,QC)
Phi(NSteps=1,StepSize=-0.5235987756)=PhiAbs

--Link1--
%chk=thf_phi_065.chk
%mem=16GB
%nprocshared=8
#p b3lyp/def2tzvp empiricaldispersion=gd3bj opt=(addgic,calcfc,noeigentest,maxcycles=200) int=ultrafine scf=(xqc,tight) nosymm

THF Prelog phase scan: absolute phi=65.000 deg

0 1
O       -1.20405300      -0.00000000       0.00000000
C       -0.38354000      -1.16524300       0.13440600
C        1.03639600      -0.73226600      -0.22394700
C        1.03639600       0.73226600       0.22394700
C       -0.38354000       1.16524300      -0.13440600
H       -0.77431400      -1.94475800      -0.52227700
H       -0.43647000      -1.52688900       1.16814600
H        1.19444600      -0.79801400      -1.30276100
H        1.79749200      -1.33675000       0.26892600
H        1.79749200       1.33675000      -0.26892600
H        1.19444600       0.79801400       1.30276100
H       -0.43647000       1.52688900      -1.16814600
H       -0.77431400       1.94475800       0.52227700

T0(Inactive)=D(1,2,3,4)
T1(Inactive)=D(2,3,4,5)
T2(Inactive)=D(3,4,5,1)
T3(Inactive)=D(4,5,1,2)
T4(Inactive)=D(5,1,2,3)
QC(Inactive)=-0.3717480345*T0+0.0000000000*T1+0.3717480345*T2-0.6015009550*T3+0.6015009550*T4
QS(Inactive)=0.5116672736*T0-0.6324555320*T1+0.5116672736*T2-0.1954395076*T3-0.1954395076*T4
PhiAbs(Inactive)=ATAN2(QS,QC)
Phi(NSteps=1,StepSize=-0.4363323130)=PhiAbs

--Link1--
%chk=thf_phi_070.chk
%mem=16GB
%nprocshared=8
#p b3lyp/def2tzvp empiricaldispersion=gd3bj opt=(addgic,calcfc,noeigentest,maxcycles=200) int=ultrafine scf=(xqc,tight) nosymm

THF Prelog phase scan: absolute phi=70.000 deg

0 1
O       -1.20405300      -0.00000000       0.00000000
C       -0.38354000      -1.16524300       0.13440600
C        1.03639600      -0.73226600      -0.22394700
C        1.03639600       0.73226600       0.22394700
C       -0.38354000       1.16524300      -0.13440600
H       -0.77431400      -1.94475800      -0.52227700
H       -0.43647000      -1.52688900       1.16814600
H        1.19444600      -0.79801400      -1.30276100
H        1.79749200      -1.33675000       0.26892600
H        1.79749200       1.33675000      -0.26892600
H        1.19444600       0.79801400       1.30276100
H       -0.43647000       1.52688900      -1.16814600
H       -0.77431400       1.94475800       0.52227700

T0(Inactive)=D(1,2,3,4)
T1(Inactive)=D(2,3,4,5)
T2(Inactive)=D(3,4,5,1)
T3(Inactive)=D(4,5,1,2)
T4(Inactive)=D(5,1,2,3)
QC(Inactive)=-0.3717480345*T0+0.0000000000*T1+0.3717480345*T2-0.6015009550*T3+0.6015009550*T4
QS(Inactive)=0.5116672736*T0-0.6324555320*T1+0.5116672736*T2-0.1954395076*T3-0.1954395076*T4
PhiAbs(Inactive)=ATAN2(QS,QC)
Phi(NSteps=1,StepSize=-0.3490658504)=PhiAbs

--Link1--
%chk=thf_phi_075.chk
%mem=16GB
%nprocshared=8
#p b3lyp/def2tzvp empiricaldispersion=gd3bj opt=(addgic,calcfc,noeigentest,maxcycles=200) int=ultrafine scf=(xqc,tight) nosymm

THF Prelog phase scan: absolute phi=75.000 deg

0 1
O       -1.20405300      -0.00000000       0.00000000
C       -0.38354000      -1.16524300       0.13440600
C        1.03639600      -0.73226600      -0.22394700
C        1.03639600       0.73226600       0.22394700
C       -0.38354000       1.16524300      -0.13440600
H       -0.77431400      -1.94475800      -0.52227700
H       -0.43647000      -1.52688900       1.16814600
H        1.19444600      -0.79801400      -1.30276100
H        1.79749200      -1.33675000       0.26892600
H        1.79749200       1.33675000      -0.26892600
H        1.19444600       0.79801400       1.30276100
H       -0.43647000       1.52688900      -1.16814600
H       -0.77431400       1.94475800       0.52227700

T0(Inactive)=D(1,2,3,4)
T1(Inactive)=D(2,3,4,5)
T2(Inactive)=D(3,4,5,1)
T3(Inactive)=D(4,5,1,2)
T4(Inactive)=D(5,1,2,3)
QC(Inactive)=-0.3717480345*T0+0.0000000000*T1+0.3717480345*T2-0.6015009550*T3+0.6015009550*T4
QS(Inactive)=0.5116672736*T0-0.6324555320*T1+0.5116672736*T2-0.1954395076*T3-0.1954395076*T4
PhiAbs(Inactive)=ATAN2(QS,QC)
Phi(NSteps=1,StepSize=-0.2617993878)=PhiAbs

--Link1--
%chk=thf_phi_080.chk
%mem=16GB
%nprocshared=8
#p b3lyp/def2tzvp empiricaldispersion=gd3bj opt=(addgic,calcfc,noeigentest,maxcycles=200) int=ultrafine scf=(xqc,tight) nosymm

THF Prelog phase scan: absolute phi=80.000 deg

0 1
O       -1.20405300      -0.00000000       0.00000000
C       -0.38354000      -1.16524300       0.13440600
C        1.03639600      -0.73226600      -0.22394700
C        1.03639600       0.73226600       0.22394700
C       -0.38354000       1.16524300      -0.13440600
H       -0.77431400      -1.94475800      -0.52227700
H       -0.43647000      -1.52688900       1.16814600
H        1.19444600      -0.79801400      -1.30276100
H        1.79749200      -1.33675000       0.26892600
H        1.79749200       1.33675000      -0.26892600
H        1.19444600       0.79801400       1.30276100
H       -0.43647000       1.52688900      -1.16814600
H       -0.77431400       1.94475800       0.52227700

T0(Inactive)=D(1,2,3,4)
T1(Inactive)=D(2,3,4,5)
T2(Inactive)=D(3,4,5,1)
T3(Inactive)=D(4,5,1,2)
T4(Inactive)=D(5,1,2,3)
QC(Inactive)=-0.3717480345*T0+0.0000000000*T1+0.3717480345*T2-0.6015009550*T3+0.6015009550*T4
QS(Inactive)=0.5116672736*T0-0.6324555320*T1+0.5116672736*T2-0.1954395076*T3-0.1954395076*T4
PhiAbs(Inactive)=ATAN2(QS,QC)
Phi(NSteps=1,StepSize=-0.1745329252)=PhiAbs

--Link1--
%chk=thf_phi_085.chk
%mem=16GB
%nprocshared=8
#p b3lyp/def2tzvp empiricaldispersion=gd3bj opt=(addgic,calcfc,noeigentest,maxcycles=200) int=ultrafine scf=(xqc,tight) nosymm

THF Prelog phase scan: absolute phi=85.000 deg

0 1
O       -1.20405300      -0.00000000       0.00000000
C       -0.38354000      -1.16524300       0.13440600
C        1.03639600      -0.73226600      -0.22394700
C        1.03639600       0.73226600       0.22394700
C       -0.38354000       1.16524300      -0.13440600
H       -0.77431400      -1.94475800      -0.52227700
H       -0.43647000      -1.52688900       1.16814600
H        1.19444600      -0.79801400      -1.30276100
H        1.79749200      -1.33675000       0.26892600
H        1.79749200       1.33675000      -0.26892600
H        1.19444600       0.79801400       1.30276100
H       -0.43647000       1.52688900      -1.16814600
H       -0.77431400       1.94475800       0.52227700

T0(Inactive)=D(1,2,3,4)
T1(Inactive)=D(2,3,4,5)
T2(Inactive)=D(3,4,5,1)
T3(Inactive)=D(4,5,1,2)
T4(Inactive)=D(5,1,2,3)
QC(Inactive)=-0.3717480345*T0+0.0000000000*T1+0.3717480345*T2-0.6015009550*T3+0.6015009550*T4
QS(Inactive)=0.5116672736*T0-0.6324555320*T1+0.5116672736*T2-0.1954395076*T3-0.1954395076*T4
PhiAbs(Inactive)=ATAN2(QS,QC)
Phi(NSteps=1,StepSize=-0.0872664626)=PhiAbs

--Link1--
%chk=thf_phi_090.chk
%mem=16GB
%nprocshared=8
#p b3lyp/def2tzvp empiricaldispersion=gd3bj opt=(addgic,calcfc,noeigentest,maxcycles=200) int=ultrafine scf=(xqc,tight) nosymm

THF Prelog phase scan: absolute phi=90.000 deg

0 1
O       -1.20405300      -0.00000000       0.00000000
C       -0.38354000      -1.16524300       0.13440600
C        1.03639600      -0.73226600      -0.22394700
C        1.03639600       0.73226600       0.22394700
C       -0.38354000       1.16524300      -0.13440600
H       -0.77431400      -1.94475800      -0.52227700
H       -0.43647000      -1.52688900       1.16814600
H        1.19444600      -0.79801400      -1.30276100
H        1.79749200      -1.33675000       0.26892600
H        1.79749200       1.33675000      -0.26892600
H        1.19444600       0.79801400       1.30276100
H       -0.43647000       1.52688900      -1.16814600
H       -0.77431400       1.94475800       0.52227700

T0(Inactive)=D(1,2,3,4)
T1(Inactive)=D(2,3,4,5)
T2(Inactive)=D(3,4,5,1)
T3(Inactive)=D(4,5,1,2)
T4(Inactive)=D(5,1,2,3)
QC(Inactive)=-0.3717480345*T0+0.0000000000*T1+0.3717480345*T2-0.6015009550*T3+0.6015009550*T4
QS(Inactive)=0.5116672736*T0-0.6324555320*T1+0.5116672736*T2-0.1954395076*T3-0.1954395076*T4
PhiAbs(Inactive)=ATAN2(QS,QC)
Phi(NSteps=1,StepSize=-0.0000000000)=PhiAbs

--Link1--
%chk=thf_phi_095.chk
%mem=16GB
%nprocshared=8
#p b3lyp/def2tzvp empiricaldispersion=gd3bj opt=(addgic,calcfc,noeigentest,maxcycles=200) int=ultrafine scf=(xqc,tight) nosymm

THF Prelog phase scan: absolute phi=95.000 deg

0 1
O       -1.20405300      -0.00000000       0.00000000
C       -0.38354000      -1.16524300       0.13440600
C        1.03639600      -0.73226600      -0.22394700
C        1.03639600       0.73226600       0.22394700
C       -0.38354000       1.16524300      -0.13440600
H       -0.77431400      -1.94475800      -0.52227700
H       -0.43647000      -1.52688900       1.16814600
H        1.19444600      -0.79801400      -1.30276100
H        1.79749200      -1.33675000       0.26892600
H        1.79749200       1.33675000      -0.26892600
H        1.19444600       0.79801400       1.30276100
H       -0.43647000       1.52688900      -1.16814600
H       -0.77431400       1.94475800       0.52227700

T0(Inactive)=D(1,2,3,4)
T1(Inactive)=D(2,3,4,5)
T2(Inactive)=D(3,4,5,1)
T3(Inactive)=D(4,5,1,2)
T4(Inactive)=D(5,1,2,3)
QC(Inactive)=-0.3717480345*T0+0.0000000000*T1+0.3717480345*T2-0.6015009550*T3+0.6015009550*T4
QS(Inactive)=0.5116672736*T0-0.6324555320*T1+0.5116672736*T2-0.1954395076*T3-0.1954395076*T4
PhiAbs(Inactive)=ATAN2(QS,QC)
Phi(NSteps=1,StepSize=0.0872664626)=PhiAbs

--Link1--
%chk=thf_phi_100.chk
%mem=16GB
%nprocshared=8
#p b3lyp/def2tzvp empiricaldispersion=gd3bj opt=(addgic,calcfc,noeigentest,maxcycles=200) int=ultrafine scf=(xqc,tight) nosymm

THF Prelog phase scan: absolute phi=100.000 deg

0 1
O       -1.20405300      -0.00000000       0.00000000
C       -0.38354000      -1.16524300       0.13440600
C        1.03639600      -0.73226600      -0.22394700
C        1.03639600       0.73226600       0.22394700
C       -0.38354000       1.16524300      -0.13440600
H       -0.77431400      -1.94475800      -0.52227700
H       -0.43647000      -1.52688900       1.16814600
H        1.19444600      -0.79801400      -1.30276100
H        1.79749200      -1.33675000       0.26892600
H        1.79749200       1.33675000      -0.26892600
H        1.19444600       0.79801400       1.30276100
H       -0.43647000       1.52688900      -1.16814600
H       -0.77431400       1.94475800       0.52227700

T0(Inactive)=D(1,2,3,4)
T1(Inactive)=D(2,3,4,5)
T2(Inactive)=D(3,4,5,1)
T3(Inactive)=D(4,5,1,2)
T4(Inactive)=D(5,1,2,3)
QC(Inactive)=-0.3717480345*T0+0.0000000000*T1+0.3717480345*T2-0.6015009550*T3+0.6015009550*T4
QS(Inactive)=0.5116672736*T0-0.6324555320*T1+0.5116672736*T2-0.1954395076*T3-0.1954395076*T4
PhiAbs(Inactive)=ATAN2(QS,QC)
Phi(NSteps=1,StepSize=0.1745329252)=PhiAbs

--Link1--
%chk=thf_phi_105.chk
%mem=16GB
%nprocshared=8
#p b3lyp/def2tzvp empiricaldispersion=gd3bj opt=(addgic,calcfc,noeigentest,maxcycles=200) int=ultrafine scf=(xqc,tight) nosymm

THF Prelog phase scan: absolute phi=105.000 deg

0 1
O       -1.20405300      -0.00000000       0.00000000
C       -0.38354000      -1.16524300       0.13440600
C        1.03639600      -0.73226600      -0.22394700
C        1.03639600       0.73226600       0.22394700
C       -0.38354000       1.16524300      -0.13440600
H       -0.77431400      -1.94475800      -0.52227700
H       -0.43647000      -1.52688900       1.16814600
H        1.19444600      -0.79801400      -1.30276100
H        1.79749200      -1.33675000       0.26892600
H        1.79749200       1.33675000      -0.26892600
H        1.19444600       0.79801400       1.30276100
H       -0.43647000       1.52688900      -1.16814600
H       -0.77431400       1.94475800       0.52227700

T0(Inactive)=D(1,2,3,4)
T1(Inactive)=D(2,3,4,5)
T2(Inactive)=D(3,4,5,1)
T3(Inactive)=D(4,5,1,2)
T4(Inactive)=D(5,1,2,3)
QC(Inactive)=-0.3717480345*T0+0.0000000000*T1+0.3717480345*T2-0.6015009550*T3+0.6015009550*T4
QS(Inactive)=0.5116672736*T0-0.6324555320*T1+0.5116672736*T2-0.1954395076*T3-0.1954395076*T4
PhiAbs(Inactive)=ATAN2(QS,QC)
Phi(NSteps=1,StepSize=0.2617993878)=PhiAbs

--Link1--
%chk=thf_phi_110.chk
%mem=16GB
%nprocshared=8
#p b3lyp/def2tzvp empiricaldispersion=gd3bj opt=(addgic,calcfc,noeigentest,maxcycles=200) int=ultrafine scf=(xqc,tight) nosymm

THF Prelog phase scan: absolute phi=110.000 deg

0 1
O       -1.20405300      -0.00000000       0.00000000
C       -0.38354000      -1.16524300       0.13440600
C        1.03639600      -0.73226600      -0.22394700
C        1.03639600       0.73226600       0.22394700
C       -0.38354000       1.16524300      -0.13440600
H       -0.77431400      -1.94475800      -0.52227700
H       -0.43647000      -1.52688900       1.16814600
H        1.19444600      -0.79801400      -1.30276100
H        1.79749200      -1.33675000       0.26892600
H        1.79749200       1.33675000      -0.26892600
H        1.19444600       0.79801400       1.30276100
H       -0.43647000       1.52688900      -1.16814600
H       -0.77431400       1.94475800       0.52227700
