# ECKART GNIC VOLT GAUSSIAN
#P B3LYP 6-31G* OPT

9-cyanophenantrene 

 0 1
 7  -3.025607   -2.970401   -0.000000
 6  -2.120175   -2.241443   -0.000000
 6  -1.013963   -1.328856   -0.000000
 6   0.259102   -1.818354   -0.000000
 6   1.383802   -0.939251   -0.000000
 6   1.183057    0.463919    0.000000
 6   2.693655   -1.467301   -0.000000
 6   3.787994   -0.632585   -0.000000
 6   3.596526    0.759898    0.000000
 6   2.324449    1.294158    0.000000
 6  -0.172765    0.987396    0.000000
 6  -1.270821    0.091298    0.000000
 6  -2.590526    0.589414    0.000000
 6  -2.827303    1.946338    0.000000
 6  -1.746214    2.842431    0.000000
 6  -0.449949    2.371650    0.000000
 1   0.427352   -2.889350   -0.000000
 1   2.821534   -2.544255   -0.000000
 1   4.790161   -1.043508   -0.000000
 1   4.454558    1.421547    0.000000
 1   2.213887    2.369967    0.000000
 1   0.362223    3.085735    0.000000
 1  -1.929077    3.910318    0.000000
 1  -3.843914    2.320063    0.000000
 1  -3.417356   -0.111312    0.000000



