#GNIC Gaussian Dihed   
# B3LYP/6-31+G* OPT POPULATION=MBS OUTPUT=PICKETT

Alanine IIn 

 0 1
 N
 C,1,CN
 C,2,CC,1,CCN
 H,2,HC,1,HCN,3,D90,0
 C,2,C1C,1,C1CN,3,D91,0
 O,3,OC,2,OCC,1,psi,0
 H,6,HO,3,HOC,2,omega,0
 O,3,O1C,6,OCO,2,tor,0
 X 1,1.0,2,90.0,3,phi1,0
 X,9,1.,1,90.,2,180.,0
 H,1,HN,9,HNX,10,d60,0
 H,1,H1N,9,H1NX,10,d61,0
 H,5,H2C,2,H2CC,1,chi1,0
 H,5,H3C,2,H3CC,13,d120,0
 H,5,H4C,2,H4CC,13,d240,0

 CN=1.47759719
 CC=1.54793034
 HC=1.0979239
 C1C=1.53196649
 OC=1.343175
 O1C=1.21035962
 HO=0.99033457
 HN=1.01900103
 H1N=1.01642125
 CCN=109.15596887
 HCN=107.15963609
 C1CN=114.8925251
 OCC=114.11622723
 OCO=122.85207789
 HOC=105.40808093
 HNX=100.91384155
 H1NX=133.55937457
 D90=112.98438019
 D91=-125.78054655
 psi=12.44780166
 omega=-2.55581263
 tor=181.7339241
 phi1=-4.56200505
 d60=68.32377068
 d61=-58.75416109
 h2c=1.09313488
 h3c=1.09576051
 h4c=1.09749725
 h2cc=110.48481237
 h3cc=110.38229932
 h4cc=110.70812985
 chi1=177.56215498
 d120=120.6480772
 d240=240.75112174



