# ECKART GNIC VOLT GAUSSIAN SYMM DIHED HBONDS 
#P B3LYP/6-31+G* OPT OUTPUT=PICKETT

Alanine I PCS2

0 1
 6  -0.719122    0.191773   -0.384405
 7  -1.611105   -0.949048   -0.334442
 6   0.717075   -0.152258   -0.023866
 8   1.073286   -1.152519    0.543129
 8   1.575281    0.820903   -0.396250
 1   2.451305    0.537560   -0.105250
 6  -1.215793    1.281799    0.561347
 1  -0.709572    0.585740   -1.401852
 1  -1.296933   -1.664764   -0.977294
 1  -1.559800   -1.368576    0.586503
 1  -0.574243    2.159263    0.521840
 1  -1.230421    0.907164    1.585903
 1  -2.229138    1.560351    0.283266


