# ECKART GNIC DIHED SYMM BLDZ SMILES GAUSSIAN
#P B3LYP/6-31G* OPT OUTPUT=PICKETT

alanine 

0 1
N[C@@H](C)C(=O)O

