# ECKART GNIC VOLT GAUSSIAN SYMM DIHED HBONDS SYSTR INVDST 
#P B3LYP 6-31+G* OPT OUTPUT=PICKETT

Alanine II PCS2

0 1
6 -0.868345 0.033089 -0.094435
6 0.616936 0.182170 -0.432289
7 1.295768 -1.105032 -0.259115
8 -1.169185 -1.073492 0.594149
8 -1.685128 0.861392 -0.391857
1 -0.327644 -1.563566 0.664822
1 0.663176 0.553320 -1.457387
6 1.215642 1.221814 0.505749
1 1.296040 -1.641702 -1.115797
1 2.258748 -0.972070 0.015648
1 0.652432 2.149173 0.441318
1 1.183109 0.863393 1.535150
1 2.252866 1.421042 0.237568

