# ECKART GNIC VOLT GAUSSIAN
#P B3LYP 6-31G* OPT

Anthracene

 0 1
 6  -3.649139    0.712530    0.000000
 6  -3.649139   -0.712530    0.000000
 6  -2.471365   -1.404598    0.000000
 6  -1.219083   -0.717887    0.000000
 6  -1.219083    0.717887    0.000000
 6  -2.471365    1.404598    0.000000
 6   0.000000    1.400965    0.000000
 6   1.219083    0.717887    0.000000
 6   1.219083   -0.717887    0.000000
 6   0.000000   -1.400965    0.000000
 6   2.471365    1.404598    0.000000
 6   3.649139    0.712530    0.000000
 6   3.649139   -0.712530    0.000000
 6   2.471365   -1.404598    0.000000   
 1  -2.468745    2.489454    0.000000
 1  -4.592696    1.245440    0.000000
 1  -4.592696   -1.245440    0.000000
 1  -2.468745   -2.489454    0.000000
 1   0.000000    2.487143    0.000000
 1   0.000000   -2.487143    0.000000
 1   2.468745    2.489454    0.000000
 1   4.592696    1.245440    0.000000
 1   4.592696   -1.245440    0.000000
 1   2.468745   -2.489454    0.000000


