%Nprocshared=12
%Mem=64GB
%chk=prova.chk
#P OPT                                                                          
symmetry=loose geom=readallgic

 a-pinene B3/SVP                                                                

  0  1
  6    -0.1234    -0.6423    -0.7546
  6    -1.4338    -0.2806    -0.0892
  6    -1.4982     0.9188     0.5015
  6    -0.2797     1.8093     0.5219
  6     0.8713     1.1526    -0.2469
  6     1.0741    -0.3285     0.2086
  6     0.3187     0.5955    -1.5829
  6     0.9491    -0.6670     1.6857
  6     2.3886    -0.9096    -0.3087
  6    -2.5618    -1.2633    -0.1352
  1     1.7576     1.7927    -0.2756
  1    -3.4520    -0.8748     0.3625
  1    -2.8218    -1.5104    -1.1695
  1    -2.2748    -2.2016     0.3512
  1    -2.4083     1.2570     0.9888
  1    -0.5132     2.7834     0.0754
  1     0.0196     2.0135     1.5576
  1    -0.1493    -1.6237    -1.2351
  1    -0.4796     1.1617    -2.0651
  1     1.1019     0.3755    -2.3056
  1     0.0184    -0.3099     2.1236
  1     0.9955    -1.7510     1.8299
  1     1.7825    -0.2268     2.2424
  1     2.5598    -0.7104    -1.3665
  1     3.2306    -0.4900     0.2501
  1     2.4034    -1.9942    -0.1662
 
 Stre1(Value= 1.5135)=R(  1,  2)
 Stre2(Value= 1.5686)=R(  1,  6)
 Stre3(Value= 1.5536)=R(  1,  7)
 Stre4(Value= 1.0930)=R(  1, 18)
 Stre5(Value= 1.3386)=R(  2,  3)
 Stre6(Value= 1.4967)=R(  2, 10)
 Stre7(Value= 1.5094)=R(  3,  4)
 Stre8(Value= 1.0863)=R(  3, 15)
 Stre9(Value= 1.5321)=R(  4,  5)
 Stre10(Value= 1.0967)=R(  4, 16)
 Stre11(Value= 1.0972)=R(  4, 17)
 Stre12(Value= 1.5628)=R(  5,  6)
 Stre13(Value= 1.5494)=R(  5,  7)
 Stre14(Value= 1.0936)=R(  5, 11)
 Stre15(Value= 1.5205)=R(  6,  8)
 Stre16(Value= 1.5274)=R(  6,  9)
 Stre17(Value= 1.0911)=R(  7, 19)
 Stre18(Value= 1.0882)=R(  7, 20)
 Stre19(Value= 1.0889)=R(  8, 21)
 Stre20(Value= 1.0946)=R(  8, 22)
 Stre21(Value= 1.0946)=R(  8, 23)
 Stre22(Value= 1.0900)=R(  9, 24)
 Stre23(Value= 1.0942)=R(  9, 25)
 Stre24(Value= 1.0940)=R(  9, 26)
 Stre25(Value= 1.0914)=R( 10, 12)
 Stre26(Value= 1.0948)=R( 10, 13)
 Stre27(Value= 1.0951)=R( 10, 14)
 Rock1(Value= 0.0337)=[ 0.5000*A( 18,  1,  7)-0.2500*A( 18,  1,  6)-0.2500*A( 18,  1,  2)]
 Rock2(Value= 0.0629)=[ 0.7071*A( 18,  1,  6)-0.7071*A( 18,  1,  2)]
 Rock3(Value= 0.0694)=[ 0.7071*A( 10,  2,  3)-0.7071*A( 10,  2,  1)]
 Rock4(Value=-0.0250)=[ 0.7071*A( 15,  3,  4)-0.7071*A( 15,  3,  2)]
 Bend5(Value=-0.0356)=[ 0.5000*A( 16,  4, 17)-0.2500*A(  3,  4, 16)-0.2500*A(  3,  4, 17)]
 Bend6(Value= 0.0020)=[ 0.5000*A(  3,  4, 16)-0.5000*A(  3,  4, 17)]
 Bend7(Value=-0.0344)=[ 0.5000*A( 16,  4, 17)-0.2500*A(  5,  4, 16)-0.2500*A(  5,  4, 17)]
 Bend8(Value=-0.0065)=[ 0.5000*A(  5,  4, 16)-0.5000*A(  5,  4, 17)]
 Rock9(Value= 0.0347)=[ 0.5000*A( 11,  5,  7)-0.2500*A( 11,  5,  6)-0.2500*A( 11,  5,  4)]
 Rock10(Value= 0.0669)=[ 0.7071*A( 11,  5,  6)-0.7071*A( 11,  5,  4)]
 Bend11(Value=-0.0630)=[ 0.5000*A(  8,  6,  9)-0.2500*A(  1,  6,  8)-0.2500*A(  1,  6,  9)]
 Bend12(Value= 0.0646)=[ 0.5000*A(  1,  6,  8)-0.5000*A(  1,  6,  9)]
 Bend13(Value=-0.0616)=[ 0.5000*A(  8,  6,  9)-0.2500*A(  5,  6,  8)-0.2500*A(  5,  6,  9)]
 Bend14(Value= 0.0609)=[ 0.5000*A(  5,  6,  8)-0.5000*A(  5,  6,  9)]
 Bend15(Value=-0.0440)=[ 0.5000*A( 19,  7, 20)-0.2500*A(  1,  7, 19)-0.2500*A(  1,  7, 20)]
 Bend16(Value= 0.0237)=[ 0.5000*A(  1,  7, 19)-0.5000*A(  1,  7, 20)]
 Bend17(Value=-0.0457)=[ 0.5000*A( 19,  7, 20)-0.2500*A(  5,  7, 19)-0.2500*A(  5,  7, 20)]
 Bend18(Value= 0.0368)=[ 0.5000*A(  5,  7, 19)-0.5000*A(  5,  7, 20)]
 Bend19(Value= 0.0329)=[ 0.5000*A(  6,  8, 21)-0.2500*A( 22,  8,  6)-0.2500*A( 22,  8, 21)]
 Bend20(Value= 0.0196)=[ 0.5000*A( 22,  8,  6)-0.5000*A( 22,  8, 21)]
 Bend21(Value= 0.0320)=[ 0.5000*A(  6,  8, 21)-0.2500*A( 23,  8,  6)-0.2500*A( 23,  8, 21)]
 Bend22(Value= 0.0146)=[ 0.5000*A( 23,  8,  6)-0.5000*A( 23,  8, 21)]
 Ang23(Value= 107.397) = A( 22,  8, 23)
 Bend24(Value= 0.0377)=[ 0.5000*A(  6,  9, 24)-0.2500*A( 25,  9,  6)-0.2500*A( 25,  9, 24)]
 Bend25(Value= 0.0204)=[ 0.5000*A( 25,  9,  6)-0.5000*A( 25,  9, 24)]
 Bend26(Value= 0.0371)=[ 0.5000*A(  6,  9, 24)-0.2500*A( 26,  9,  6)-0.2500*A( 26,  9, 24)]
 Bend27(Value= 0.0208)=[ 0.5000*A( 26,  9,  6)-0.5000*A( 26,  9, 24)]
 Ang28(Value= 107.651) = A( 25,  9, 26)
 Bend29(Value=-0.0345)=[ 0.5000*A( 13, 10, 14)-0.2500*A(  2, 10, 13)-0.2500*A(  2, 10, 14)]
 Bend30(Value= 0.0026)=[ 0.5000*A(  2, 10, 13)-0.5000*A(  2, 10, 14)]
 Bend31(Value=-0.0149)=[ 0.5000*A( 13, 10, 14)-0.2500*A( 12, 10, 13)-0.2500*A( 12, 10, 14)]
 Bend32(Value= 0.0006)=[ 0.5000*A( 12, 10, 13)-0.5000*A( 12, 10, 14)]
 Ang33(Value= 111.530) = A(  2, 10, 12)
 RDef34(Value= 0.0339)=[ 0.5000*A(  6,  5,  7)-0.5000*A(  5,  7,  1)+0.5000*A(  7,  1,  6)-0.5000*A(  1,  6,  5)]
 RDef35(Value= 0.1529)=[ 0.5774*A(  1,  2,  3)-0.2887*A(  2,  3,  4)-0.2887*A(  3,  4,  5)+0.5774*A(  4,  5,  6)-0.2887*A(  5,  6,  1)-0.2887*A(  6,  1,  2)]
 RDef36(Value=-0.1372)=[ 0.0000*A(  1,  2,  3)+0.5000*A(  2,  3,  4)-0.5000*A(  3,  4,  5)-0.0000*A(  4,  5,  6)+0.5000*A(  5,  6,  1)-0.5000*A(  6,  1,  2)]
 RDef37(Value=-0.2051)=[ 0.4082*A(  1,  2,  3)-0.4082*A(  2,  3,  4)+0.4082*A(  3,  4,  5)-0.4082*A(  4,  5,  6)+0.4082*A(  5,  6,  1)-0.4082*A(  6,  1,  2)]
 Dihe1(Value=   0.782) = D(  3,  2, 10, 12)
 Dihe2(Value= -48.770) = D(  1,  6,  8, 21)
 Dihe3(Value=  46.542) = D(  1,  6,  9, 24)
 RPck4(Value= 0.0006)=[ 0.5000*D(  5,  7,  1,  6)-0.5000*D(  7,  1,  6,  5)+0.5000*D(  1,  6,  5,  7)-0.5000*D(  6,  5,  7,  1)]
 RPck5(Value= 0.0130)=[ 0.5774*D(  5,  6,  1,  2)-0.2887*D(  6,  1,  2,  3)-0.2887*D(  1,  2,  3,  4)+0.5774*D(  2,  3,  4,  5)-0.2887*D(  3,  4,  5,  6)-0.2887*D(  4,  5,  6,  1)]
 RPck6(Value= 0.0130)=[ 0.0000*D(  5,  6,  1,  2)+0.5000*D(  6,  1,  2,  3)-0.5000*D(  1,  2,  3,  4)-0.0000*D(  2,  3,  4,  5)+0.5000*D(  3,  4,  5,  6)-0.5000*D(  4,  5,  6,  1)]
 RPck7(Value= 0.0130)=[ 0.4082*D(  5,  6,  1,  2)-0.4082*D(  6,  1,  2,  3)+0.4082*D(  1,  2,  3,  4)-0.4082*D(  2,  3,  4,  5)+0.4082*D(  3,  4,  5,  6)-0.4082*D(  4,  5,  6,  1)]
 OuPl1(Value=   0.252) = U(  2,  1,  3, 10)
 OuPl2(Value=  -1.194) = U(  3,  2,  4, 15)
