# ECKART GNIC GADV VOLT DIHED SYMM BLDZ
# OPT

 benzene

 0 1
   1    -0.000000    2.471500    0.000000
   6    -0.000000    1.391600    0.000000
   6    -1.205161    0.695800    0.000000
   1    -2.140382    1.235750    0.000000
   6    -1.205161   -0.695800    0.000000
   1    -2.140382   -1.235750    0.000000
   6     0.000000   -1.391600   -0.000000
   1     0.000000   -2.471500   -0.000000
   6     1.205161   -0.695800   -0.000000
   1     2.140382   -1.235750   -0.000000
   6     1.205161    0.695800   -0.000000
   1     2.140382    1.235750   -0.000000

