# GNIC GADV SYMM
#P B3LYP 6-31+G* empiricaldispersion=GD3BJ opt=verytight output=pickett 

biphenylene

 0 1
  6   0.763540   -0.716753    0.000000
  6   0.763540    0.716753    0.000000
  6   1.905281    1.441351    0.000000
  6   3.119992    0.684619    0.000000
  6   3.119992   -0.684619    0.000000
  6   1.905281   -1.441351    0.000000
  1   4.060766   -1.215990    0.000000
  1   1.931890   -2.521678    0.000000
  6  -0.763540    0.716753    0.000000
  6  -0.763540   -0.716753    0.000000
  6  -1.905281    1.441351    0.000000
  6  -3.119992    0.684619    0.000000
  6  -3.119992   -0.684619    0.000000
  6  -1.905281   -1.441351    0.000000
  1  -4.060766   -1.215990    0.000000
  1  -1.931890   -2.521678    0.000000
  1  -1.931890    2.521678    0.000000
  1  -4.060766    1.215990    0.000000
  1   4.060766    1.215990    0.000000
  1   1.931890    2.521678    0.000000


