# Eckart GNIC VOLT GADV DIHED 
#P B3LYP/6-31G* OPT OUTPUT=PICKETT 

 C6H5 semiexp.

  0 2
  C      0.000000    0.000000    0.000000   
  C      2.714168    0.000000    0.000000   
  C      0.625587   -1.221873    0.000000   
  C      0.625587    1.221873    0.000000   
  C      2.017862   -1.208459    0.000000   
  C      2.017862    1.208459    0.000000   
  H      3.795368    0.000000    0.000000   
  H      0.077733   -2.153878    0.000000   
  H      0.077733    2.153878    0.000000   
  H      2.560793   -2.144612    0.000000   
  H      2.560793    2.144612    0.000000  


