%Nprocshared=12
%Mem=64GB
%chk=prova.chk
#P B3LYP/6-31G* OPT OUTPUT=PICKETT                                              
symmetry=loose geom=readallgic

 C6H5 semiexp.                                                                  

  0  2
  6     0.0000    -1.3650    -0.0000
  6    -0.0000     1.3492     0.0000
  6    -1.2219    -0.7394    -0.0000
  6     1.2219    -0.7394    -0.0000
  6    -1.2085     0.6529     0.0000
  6     1.2085     0.6529     0.0000
  1    -0.0000     2.4304     0.0000
  1    -2.1539    -1.2872    -0.0000
  1     2.1539    -1.2872    -0.0000
  1    -2.1446     1.1958     0.0000
  1     2.1446     1.1958     0.0000
 
 Stre1(Value= 1.3727)=R(  1,  3)
 Stre2(Value= 1.3727)=R(  1,  4)
 Stre3(Value= 1.3947)=R(  2,  5)
 Stre4(Value= 1.3947)=R(  2,  6)
 Stre5(Value= 1.0812)=R(  2,  7)
 Stre6(Value= 1.3923)=R(  3,  5)
 Stre7(Value= 1.0811)=R(  3,  8)
 Stre8(Value= 1.3923)=R(  4,  6)
 Stre9(Value= 1.0811)=R(  4,  9)
 Stre10(Value= 1.0822)=R(  5, 10)
 Stre11(Value= 1.0822)=R(  6, 11)
 Rock1(Value= 0.0000)=[ 0.7071*A(  7,  2,  6)-0.7071*A(  7,  2,  5)]
 Rock2(Value=-0.0178)=[ 0.7071*A(  8,  3,  5)-0.7071*A(  8,  3,  1)]
 Rock3(Value=-0.0178)=[ 0.7071*A(  9,  4,  6)-0.7071*A(  9,  4,  1)]
 Rock4(Value=-0.0047)=[ 0.7071*A( 10,  5,  3)-0.7071*A( 10,  5,  2)]
 Rock5(Value=-0.0047)=[ 0.7071*A( 11,  6,  4)-0.7071*A( 11,  6,  2)]
 RDef6(Value= 0.0888)=[ 0.5774*A(  4,  1,  3)-0.2887*A(  1,  3,  5)-0.2887*A(  3,  5,  2)+0.5774*A(  5,  2,  6)-0.2887*A(  2,  6,  4)-0.2887*A(  6,  4,  1)]
 RDef7(Value= 0.0000)=[ 0.0000*A(  4,  1,  3)+0.5000*A(  1,  3,  5)-0.5000*A(  3,  5,  2)-0.0000*A(  5,  2,  6)+0.5000*A(  2,  6,  4)-0.5000*A(  6,  4,  1)]
 RDef8(Value= 0.0966)=[ 0.4082*A(  4,  1,  3)-0.4082*A(  1,  3,  5)+0.4082*A(  3,  5,  2)-0.4082*A(  5,  2,  6)+0.4082*A(  2,  6,  4)-0.4082*A(  6,  4,  1)]
 RPck1(Value= 0.0000)=[ 0.5774*D(  2,  6,  4,  1)-0.2887*D(  6,  4,  1,  3)-0.2887*D(  4,  1,  3,  5)+0.5774*D(  1,  3,  5,  2)-0.2887*D(  3,  5,  2,  6)-0.2887*D(  5,  2,  6,  4)]
 RPck2(Value= 0.0000)=[ 0.0000*D(  2,  6,  4,  1)+0.5000*D(  6,  4,  1,  3)-0.5000*D(  4,  1,  3,  5)-0.0000*D(  1,  3,  5,  2)+0.5000*D(  3,  5,  2,  6)-0.5000*D(  5,  2,  6,  4)]
 RPck3(Value= 0.0000)=[ 0.4082*D(  2,  6,  4,  1)-0.4082*D(  6,  4,  1,  3)+0.4082*D(  4,  1,  3,  5)-0.4082*D(  1,  3,  5,  2)+0.4082*D(  3,  5,  2,  6)-0.4082*D(  5,  2,  6,  4)]
 OuPl1(Value=   0.000) = U(  2,  5,  6,  7)
 OuPl2(Value=   0.000) = U(  3,  1,  5,  8)
 OuPl3(Value=   0.000) = U(  4,  1,  6,  9)
 OuPl4(Value=   0.000) = U(  5,  2,  3, 10)
 OuPl5(Value=   0.000) = U(  6,  2,  4, 11)
