# ECKART GNIC VOLT GAUSSIAN SYMM BPCS
#P b3lyp/6-31g* opt

ciclopentanolo rdsd/3f12m 
 
0 1
C   0.783251  -0.019043   0.353923
C  -0.022104  -1.178652  -0.228192
C  -1.459713  -0.785980   0.117009
C  -1.496118   0.752025  -0.069439
C  -0.019363   1.210810  -0.062803
H   0.792208  -0.103902   1.450058
O   2.114543   0.097203  -0.130759
H   2.617110  -0.660603   0.178514
H   0.270902  -2.153397   0.169962
H   0.130661  -1.189892  -1.312248
H  -2.200790  -1.302817  -0.494162
H  -1.667882  -1.041690   1.159758
H  -1.974402   1.017094  -1.013721
H  -2.074848   1.229935   0.722412
H   0.310099   1.487931  -1.067288
H   0.164886   2.064749   0.589796


