# Eckart GNIC VOLT GAUSS SYMM SYSTR DIHED NORMAL
#P b3lyp/6-31g* opt

cisbenzoic acid

 0 1
 6   2.604481    0.025234   -0.000000
 6   1.928634   -1.194374   -0.000000
 6   1.889634    1.221008   -0.000000
 6   0.539530   -1.218492   -0.000000
 6   0.498524    1.202610    0.000000
 6  -0.177526   -0.019777    0.000000
 6  -1.660988   -0.097144    0.000000
 8  -2.299955   -1.123225    0.000000
 8  -2.252959    1.120147    0.000000
 1  -3.204654    0.951122    0.000000
 1  -0.006884   -2.153196   -0.000000
 1  -0.063220    2.127121    0.000000
 1   2.485298   -2.123671   -0.000000
 1   2.415853    2.167920   -0.000000
 1   3.688031    0.043236   -0.000000

