# ECKART GNIC VOLT GAUSSIAN SYMM DIHED
#P HF 6-31G* OPT 

Coronene

 0 1
C   -4.19564    1.28312     0.00000
C   -4.27180   -0.11455    -0.00000
C   -3.10244   -0.89081     0.00000
C   -1.84308   -0.25242     0.00000
C   -1.76632    1.15628    -0.00000
C   -2.94886    1.92773     0.00000
C   -2.86128    3.32855     0.00000
C   -1.61279    3.96143     0.00000
C   -0.43115    3.20400     0.00000
C   -0.50797    1.79416    -0.00000
C   -3.16758   -2.29286    -0.00000
C   -1.99524   -3.05764     0.00000
C   -0.73830   -2.43308    -0.00000
C   -0.66148   -1.02325    -0.00000
C    0.59687   -0.38537    -0.00000
C    1.77941   -1.15682    -0.00000
C    1.69182   -2.55764     0.00000
C    0.44333   -3.19052     0.00000
C    0.67363    1.02333     0.00000
C    1.93299    1.66172     0.00000
C    3.10234    0.88546     0.00000
C    3.02619   -0.51221     0.00000
C    0.82580    3.82855     0.00000
C    1.99813    3.06377    -0.00000
H   -3.75890    3.93538     0.00000
H   -1.57161    5.04415     0.00000
H    0.90251    4.90933     0.00000
H    2.95638    3.56947     0.00000
H    4.07668    1.35941     0.00000
H    3.94326   -1.08922     0.00000
H    2.58945   -3.16446     0.00000
H    0.40216   -4.27323     0.00000
H   -4.12582   -2.79856     0.00000
H   -2.07195   -4.13842     0.00000
H   -5.11272    1.86013    -0.00000
H   -5.24614   -0.58850     0.00000


