# ECKART GNIC VOLT GAUSSIAN SYMM 
#P HF 6-31G* OPT=TIGHT SYMMETRY=LOOSE 

Coronene D6h

 0 1
   6     2.418966    2.836158    0.000000
   6     1.246702    3.512965    0.000000
   6    -0.000000    2.824080   -0.000000
   6    -0.000000    1.426469   -0.000000
   6     1.235359    0.713235    0.000000
   6     2.445725    1.412040    0.000000
   6     3.665668    0.676807   -0.000000
   6     3.665668   -0.676807    0.000000
   6     2.445725   -1.412040    0.000000
   6     1.235359   -0.713235    0.000000
   6    -1.246702    3.512965    0.000000
   6    -2.418966    2.836158   -0.000000
   6    -2.445725    1.412040   -0.000000
   6    -1.235359    0.713235   -0.000000
   6    -1.235359   -0.713235   -0.000000
   6    -2.445725   -1.412040   -0.000000
   6    -3.665668   -0.676807   -0.000000
   6    -3.665668    0.676807    0.000000
   6    -0.000000   -1.426469   -0.000000
   6    -0.000000   -2.824080   -0.000000
   6    -1.246702   -3.512965   -0.000000
   6    -2.418966   -2.836158    0.000000
   6     2.418966   -2.836158   -0.000000
   6     1.246702   -3.512965    0.000000
   1     4.595599    1.217786    0.000000
   1     4.595599   -1.217786   -0.000000
   1     3.352433   -3.371012    0.000000
   1     1.243166   -4.588798   -0.000000
   1    -1.243166   -4.588798    0.000000
   1    -3.352433   -3.371012   -0.000000
   1    -4.595599   -1.217786    0.000000
   1    -4.595599    1.217786   -0.000000
   1    -1.243166    4.588798    0.000000
   1    -3.352433    3.371012    0.000000
   1     3.352433    3.371012    0.000000
   1     1.243166    4.588798    0.000000




