# ECKART GNIC VOLT GAUSSIAN SYMM 
#P b3lyp/6-31g* opt

cpentanone, rdsd/3f12m 
 
0 1
6 -0.000000 -0.000000 0.919241
6 0.000000 1.237675 0.026981
6 0.315158 0.701835 -1.371582
1 -1.010590 1.659677 0.064972
1 0.686049 1.993355 0.409298
6 -0.315158 -0.701835 -1.371582
1 1.398265 0.616425 -1.501479
1 -0.064558 1.336805 -2.172415
6 -0.000000 -1.237675 0.026981
1 0.064558 -1.336805 -2.172415
1 -1.398265 -0.616425 -1.501479
1 1.010590 -1.659677 0.064972
1 -0.686049 -1.993355 0.409298
8 -0.000000 -0.000000 2.127377

