# GNIC GAUSSIAN VOLT SYMM DIHED 
#P B3LYP/6-31G* OPT

Cubane B3/SVP

0 1
 6   0.7829   0.7829   0.7829
 6  -0.7829   0.7829   0.7829
 6  -0.7829   0.7829  -0.7829
 6   0.7829   0.7829  -0.7829
 6   0.7829  -0.7829   0.7829
 6   0.7829  -0.7829  -0.7829
 6  -0.7829  -0.7829  -0.7829
 6  -0.7829  -0.7829   0.7829
 1   1.4097   1.4097   1.4097
 1  -1.4097   1.4097   1.4097
 1  -1.4097   1.4097  -1.4097
 1   1.4097   1.4097  -1.4097
 1   1.4097  -1.4097   1.4097
 1   1.4097  -1.4097  -1.4097
 1  -1.4097  -1.4097  -1.4097
 1  -1.4097  -1.4097   1.4097


