# Eckart GNIC GAUSS VOLT
#P B3LYP/6-31G* OPT 

3-cyanopyridine 3F12

 0 1
 7  -3.140216   -0.024787   -0.000000
 6  -1.978860    0.000717   -0.000000
 6  -0.545365    0.030615    0.000000
 6   0.181719   -1.165218   -0.000000
 7   1.512551   -1.208297   -0.000000
 6   2.167070   -0.042314    0.000000
 6   1.535681    1.199416    0.000000
 6   0.149329    1.241934    0.000000
 1  -0.340440   -2.116000   -0.000000
 1   3.249989   -0.106120   -0.000000
 1   2.120939    2.109852    0.000000
 1  -0.389385    2.181238    0.000000


