# ECKART GNIC GAUSSIAN VOLT DIHED SYMM iSOT
#P B3LYP/6-31G* OPT OUTPUT=PICKETT 

cyclopentadiene

 0 1
 X
 X 1 rd 
 C 2 rd 1 a90 
 C 3 r1 2 a1  1 d90
 C 3 r1 2 a1  4 d180
 C 4 r2 3 a2  5 d0
 C 5 r2 3 a2  4 d0
 H 4 r3 3 a3  2 d180
 H 5 r3 3 a3  2 d180
 H 6 r4 4 a4  8 d0
 H 7 r4 5 a4  9 d0
 H 3 r5 2 a5  1 d0 
 H 3 r5 2 a5 12 d180

 r1=1.4991
 r2=1.3464
 r3=1.0787
 r4=1.0791
 r5=1.0944
 a1=51.541
 a2=109.330
 a3=124.010
 a4=126.082
 a5=126.710

 rd=1.0
 a90=90.0
 d90=90.0
 d180=180.0
 d0=0.0

 15    \nspecies
 0  8426.109  8225.640  4271.437  \parent
 1  8426.053  8219.483  4217.759  \1C13 
 1  13
 1  8420.043  8040.425  4219.411  \2C13
 2  13
 1  8420.043  8040.425  4219.411  \2'C13
 3  13
 1  8345.132  8108.714  4219.063  \3C13
 4  13
 1  8345.132  8108.714  4219.063  \3'C13
 5  13
 1  8129.952  7859.534  4145.090  \1D 
 10  2 
 1  8129.952  7859.534  4145.090  \1'D
 11  2 
 1  8414.045  7591.889  4091.154  \2D
  6  2
 1  8414.045  7591.889  4091.154  \2'D
  7  2
 1  8307.036  7678.126  4090.254  \3D
  8  2
 1  8307.036  7678.126  4090.254  \3'D
  9  2
 5  7007.858  6681.888  3529.302  \1,2,3,4,5-d5
     6  2  7  2  8  2  9  2 10  2 
 5  7007.858  6681.888  3529.302  \1,2,3,4,5-d5
     6  2  7  2  8  2  9  2 11  2 
 6  6608.398  6607.340  3444.129  \fully deuterated
     6  2  7  2  8  2  9  2 10  2 11  2

 DBVib
 63.046  66.461  34.228  \parent
 66.046  60.796  33.512  \1C13  
 62.748  64.627  33.672  \2C13
 62.748  64.627  33.672  \2'C13
 63.249  63.844  33.580  \3C13
 63.249  63.844  33.580  \3'C13
 65.660  58.864  33.263  \1D
 65.660  58.864  33.263  \1'D
 63.130  58.628  32.018  \2D
 63.130  58.628  32.018  \2'D
 64.793  56.982  32.018  \3D
 64.793  56.982  32.018  \3'D
 49.690  48.475  25.954  \1,2,3,4,5-d5
 49.690  48.475  25.954  \1,2,3,4,5-d5
 48.552  46.425  25.158  \fully deuterated

