# ECKART GNIC VOLT GAUSS SYMM DIHED
#P opt

cyclottane test 

0 1
C         -4.32078        1.85777       -0.61041
C         -4.34101        0.86445        0.55194
C         -3.47567       -0.37833        0.29027
H         -5.37454        0.48075        0.70108
H         -4.08421        1.36712        1.50608
C         -2.10526       -0.22918       -0.40542
H         -4.05489       -1.04199       -0.39045
H         -3.36583       -0.92130        1.25428
C         -1.05102        0.65925        0.25210
H         -2.19950        0.05816       -1.47364
H         -1.69679       -1.26478       -0.40670
C         -1.06207        2.15915       -0.11442
H         -0.07706        0.30164       -0.15223
H         -1.02364        0.49155        1.35059
C         -2.17937        3.01568        0.47806
H         -0.97395        2.32855       -1.20946
H         -0.12496        2.54482        0.34714
C         -3.50949        3.12518       -0.29852
H         -1.80227        4.06282        0.50287
H         -2.32889        2.72476        1.53897
H         -3.99271        1.36370       -1.54703
H         -5.35434        2.21112       -0.82146
H         -3.35814        3.67199       -1.25470
H         -4.14762        3.77095        0.34575


