# ECKART GNIC GAUSSIAN VOLT DIHED SYMM BLDZ
#P B3LYP/6-31G* OPT OUTPUT=PICKETT

Cyclopentadiene PCS2

0 1
6 0.000000 0.000000 1.215630
1 0.877144 -0.000000 1.869429
1 -0.877144 0.000000 1.869429
6 -0.000000 1.175014 0.282436
1 -0.000000 2.204136 0.605704
6 -0.000000 0.733498 -0.989936
1 -0.000000 1.348633 -1.877027
6 -0.000000 -1.175014 0.282436
1 -0.000000 -2.204136 0.605704
6 -0.000000 -0.733498 -0.989936
1 -0.000000 -1.348633 -1.877027



