# ECKART GNIC GAUSSIAN VOLT DIHED SYMM
#P B3LYP/6-31G* OPT OUTPUT=PICKETT 

cyclopentadiene

 0 1
 X
 X  1 1.0
 X  2 1.0  1 90.0
 C  3 half 2 90.0 1  90.0 
 C  3 half 2 90.0 1 -90.0
 C  4 CC   3 CCC  2  90.0
 H  4 CH   3 CCH  2 -90.0
 C  5 CC   3 CCC  2 -90.0 
 H  5 CH   3 CCH  2  90.0
 H  6 CH1  4 CCH1 3 180.0
 H  8 CH1  5 CCH1 3 180.0
 C  3 long 2 90.0 1 180.0
 H 12 CH2  3 CCH2 2   0.0
 H 12 CH2  3 CCH2 2 180.0

 half=0.68
 CC=1.38
 CH=1.08
 CH1=1.08
 long=2.3 
 CH2=1.08
 CCC=110.0
 CCH=110.0
 CCH1=110.0
 CCH2=110.0



 !      half         0.7349   -DE/DX =    0.0002                        !
 !       CC          1.3489   -DE/DX =    0.0                           !
 !       CH          1.0853   -DE/DX =    0.0                           !
 !       CH1         1.084    -DE/DX =    0.0                           !
 !      long         2.2086   -DE/DX =    0.0                           !
 !       CH2         1.1011   -DE/DX =    0.0                           !
 !       CCC       109.3184   -DE/DX =    0.0001                        !
 !       CCH       124.347    -DE/DX =    0.0                           !
 !      CCH1       126.9913   -DE/DX =    0.0                           !
 !      CCH2       127.1103   -DE/DX =    0.0                 
