# ECKART GNIC GAUSSIAN VOLT DIHED SYMM
#P B3LYP/6-31G* OPT OUTPUT=PICKETT 

cyclopentadiene

 0 1
 X
 X  1 1.0
 X  2 1.0   1 90.0
 C  3 long  2 90.0  1 180.0
 C  4 C1C2  3 supp  2 -90.0
 C  3 half  2 90.0  1 -90.0 
 H  4 C1H   3 CCH   2   0.0
 H  4 C1H   3 CCH   2 180.0
 H  5 C2H   4 C1C2H 3 180.0 
 H  6 C3H   3 C3C3H 2  90.0
 C  4 C1C2  3 supp  2  90.0
 C  3 half  2 90.0  1  90.0 
 H 11 C2H   4 C1C2H 3 180.0 
 H 12 C3H   3 C3C3H 2 -90.0

 long=2.2
 C1C2=1.4
 half=0.7
 C1H=1.08
 C2H=1.08
 C3H=1.08
 supp=55.0
 CCH=120.0
 C1C2H=120.0
 C3C3H=120.0


 !      long         2.2086   -DE/DX =    0.0                           !
 !      C1C2         1.5068   -DE/DX =    0.0                           !
 !      half         0.735    -DE/DX =   -0.0001                        !
 !       C1H         1.1011   -DE/DX =    0.0                           !
 !       C2H         1.084    -DE/DX =    0.0                           !
 !       C3H         1.0853   -DE/DX =    0.0                           !
 !      supp        51.6155   -DE/DX =    0.0001                        !
 !       CCH       127.1118   -DE/DX =    0.0                           !
 !      C1C2H      123.9383   -DE/DX =    0.0                           !
 !      C3C3H      124.3463   -DE/DX =    0.0                           !

