# ECKART GNIC GAUSSIAN VOLT DIHED SYMM
#P B3LYP/6-31G* OPT 

cyclopentadiene

 0 1
    1
    6    1 R0001
    6    2 R0002    1 A0001
    1    3 R0003    2 A0002    1 D0001    0
    1    2 R0001    1 A0003    3 D0002    0
    6    2 R0002    1 A0001    3 D0003    0
    1    6 R0003    2 A0002    1 D0004    0
    6    6 R0004    2 A0004    1 D0005    0
    1    8 R0005    6 A0005    2 D0006    0
    6    8 R0006    6 A0006    2 D0007    0
    1   10 R0005    8 A0007    6 D0008    0

 R0001 =   1.09400
 R0002 =   1.50050
 A0001 = 111.81890
 R0003 =   1.07870
 A0002 = 124.10490
 D0001 =  59.72847
 A0003 = 106.60034
 D0002 = 122.48777
 D0003 =-115.02446
 D0004 = -59.72847
 R0004 =   1.34680
 A0004 = 109.31965
 D0005 = 120.27153
 R0005 =   1.07950
 A0005 = 126.12453
 D0006 = 180.00000
 R0006 =   1.46700
 A0006 = 109.13689
 D0007 =   0.00000
 A0007 = 124.73858
 D0008 = 180.00000
 
