# ECKART GNIC VOLT GAUSSIAN SYMM NORMAL 
#P opt

decalone, rdsd/3f12m 
 
0 1
6  2.863110 -0.502906 -0.184579
6  2.812708  0.923450  0.351692
6  1.528077  1.623317 -0.077529
6  0.286763  0.843386  0.344918
6  0.341311 -0.589935 -0.188570
6  1.627586 -1.288974  0.238775
6 -0.893572 -1.383950  0.248247
6 -2.169866 -0.670726 -0.129474
6 -2.246483  0.768691  0.322573
6 -0.993364  1.536231 -0.107329
1  2.861434  0.898814  1.445745
1  3.682613  1.489113  0.010350
1  3.767747 -1.008041  0.161332
1  2.915258 -0.475319 -1.278264
1  1.486634  2.634089  0.337757
1  1.520922  1.730789 -1.168651
1  1.621550 -1.397584  1.329983
1  1.654531 -2.299430 -0.177986
1 -1.030424  2.553693  0.289632
1 -0.981403  1.624376 -1.199026
1  0.335141 -0.530711 -1.286219
1 -2.309794  0.771768  1.416359
1 -3.158014  1.214193 -0.073452
1 -0.872925 -1.486813  1.339972
1 -0.904514 -2.382949 -0.188005
1  0.277467  0.785791  1.443637
8 -3.052626 -1.203948 -0.765660


