# ECKART GNIC GAUSSIAN VOLT SYMM DIHED 
#P B3LYP/6-31G* OPT

eucalyptol rdsd/3f12- 

0 1
 C    1.245668    0.484242    1.254993
 C    1.219025   -0.393248   -0.000081
 C   -0.813166    1.134752    0.000167
 C    0.040448    1.452312    1.233500
 H    1.206922   -0.173698    2.126820
 H    2.193134    1.028571    1.299688
 H   -0.543557    1.371053    2.150817
 H    0.375844    2.490708    1.169160
 C   -1.204376   -0.355564   -0.000025
 H   -1.727006    1.736596    0.000266
 C    0.040397    1.452645   -1.233116
 H   -0.543637    1.371602   -2.150432
 H    0.375767    2.491034   -1.168526
 C    1.245644    0.484614   -1.254896
 H    1.206914   -0.173069   -2.126917
 H    2.193095    1.028983   -1.299431
 O    0.001280   -1.154835   -0.000187
 C   -2.003196   -0.741995    1.242114
 H   -2.931853   -0.167522    1.302578
 H   -2.255115   -1.803045    1.193158
 H   -1.428404   -0.577957    2.153160
 C   -2.003292   -0.741649   -1.242210
 H   -2.255210   -1.802712   -1.193530
 H   -2.931952   -0.167157   -1.302444
 H   -1.428567   -0.577360   -2.153253
 C    2.338464   -1.413756   -0.000242
 H    2.269784   -2.048363   -0.885823
 H    3.310094   -0.914484   -0.000184
 H    2.269808   -2.048615    0.885160



