# GNIC Gauss SYMM
#P B3LYP 6-31+G* empiricaldispersion=GD3BJ opt=tight output=pickett 

fluorene  

 0 1
  6  -3.450647    0.120685    0.000000
  6  -3.006728   -1.203780    0.000000
  6  -2.537690    1.176665    0.000000
  6  -1.179557    0.889484    0.000000
  6  -0.733496   -0.443091    0.000000
  6  -1.644706   -1.496927    0.000000
  6  -0.000000    1.833539   -0.000000
  6   1.179557    0.889484   -0.000000
  1   0.000000    2.483880    0.880757
  1  -0.000000    2.483880   -0.880757
  6   0.733496   -0.443091   -0.000000
  6   1.644706   -1.496927   -0.000000
  6   3.006728   -1.203780   -0.000000
  6   3.450647    0.120685   -0.000000
  6   2.537690    1.176665   -0.000000
  1   1.305416   -2.526828    0.000000
  1   3.730626   -2.010257   -0.000000
  1   4.514119    0.328976   -0.000000
  1   2.889381    2.202822   -0.000000
  1  -2.889381    2.202822    0.000000
  1  -4.514119    0.328976    0.000000
  1  -1.305416   -2.526828   -0.000000
  1  -3.730626   -2.010257    0.000000


