# ECKART GNIC DIHED Gaussian 
#P B3LYP/6-31+G* EMPIRICALDISPERSION=GD4 OPT OUTPUT=PICKETT

Glycine I PCS2

0 1
6 0.305403 -0.455839 0.000000
8 -0.512308 -1.337789 0.000000
8 1.634776 -0.684529 0.000000
1 1.747920 -1.643276 0.000000
6 -0.000000 1.027650 0.000000
1 0.490651 1.463585 0.870869
1 0.490651 1.463585 -0.870869
7 -1.404554 1.365861 0.000000
1 -1.854754 0.951377 -0.805391
1 -1.854754 0.951377 0.805391


