# ECKART GNIC DIHED SYMM BLDZ GAUSSIAN SMILES
#P B3LYP/6-31G* OPT OUTPUT=PICKETT

glyda dipeptide analogue

0 1
C(=O)N[C@@H2]C(=O)N

