# ECKART GNIC DIHED SYMM BLDZ SMILES GAUSSIAN SCAN RIGID
#P B3LYP/6-31G* OPT OUTPUT=PICKETT

glycine 

0 1
NCC(=O)O

