# ECKART GNIC VOLT GAUSSIAN SYMM
#P B3LYP 6-31G* OPT 

Guanine 1 3F12red  

 0 1
 6   -1.686287   -0.572285    0.007409
 7   -0.735486   -1.455361    0.016198
 6    0.521220   -0.916073    0.002602
 6    0.789164    0.445450    0.010178
 6   -0.237689    1.433680    0.004622
 7   -1.489574    0.789940    0.002665
 7    2.157365    0.557746    0.002798
 7    1.690830   -1.630740   -0.006218
 6    2.639256   -0.714039   -0.006816
 8   -0.143645    2.651152   -0.006296
 7   -3.002852   -0.977490   -0.057483
 1   -3.098243   -1.969038    0.101227
 1   -3.668447   -0.425209    0.460142
 1    3.698290   -0.921269   -0.013705
 1   -2.283670    1.408736   -0.079668
 1    2.682834    1.415899    0.001795






