# GNIC GAUSS BMAT 
# opt output=pickett

H20

0 1 
  1   -0.758003    0.564573    0.000000
  8    0.000000   -0.071146   -0.000000
  1    0.758003    0.564573    0.000000

