# ECKART GNIC GAUSS VOLT SYMM 
#P B3LYP 6-31g* opt 

 Indole rDSD/3F12- 

 0 1
 1    0.078402   -2.710292    0.000000
 1    1.728364    2.033395    0.000000
 1    3.322350    0.126458    0.000000
 1   -3.221110    1.280534    0.000000
 1   -2.630057   -1.355860    0.000000
 6   -1.929430   -0.532119    0.000000
 6   -2.253142    0.798660    0.000000
 6   -0.494847   -0.618963    0.000000
 7   -1.095761    1.556292    0.000000
 6   -0.000000    0.716156    0.000000
 6    0.427348   -1.680663    0.000000
 6    1.368385    1.007537    0.000000
 6    1.786538   -1.396105    0.000000
 6    2.252682   -0.064767    0.000000
 1    2.506426   -2.210124    0.000000
 1   -1.059249    2.563413    0.000000


