# GNIC Gauss SYMM
#P B3LYP 6-31+G* empiricaldispersion=GD3BJ opt=tight output=pickett 

indoline amide CS 

 0 1
 6   -2.282029    0.700869   -0.0000
 6   -2.754382   -0.618785   -0.0000
 6   -1.852386   -1.687166    0.0000
 6   -0.468650   -1.473979    0.0000
 6   -0.020330   -0.151653    0.0000
 6   -0.911800    0.928983   -0.0000
 1   -3.823506   -0.810816   -0.0000
 1   -2.227017   -2.707093    0.0000
 1    0.236420   -2.294241    0.0000
 6   -0.152917    2.237597   -0.0000
 6    1.338058    1.806359    0.0000
 1   -0.390883    2.844189    0.8812
 1   -0.390883    2.844189   -0.8812
 7    1.309619    0.323897    0.0000
 1    1.868175    2.166804    0.8870
 1    1.868175    2.166804   -0.8870
 1   -2.978876    1.535658   -0.0000
 6    2.447965   -0.424400    0.0000
 8    2.503263   -1.647242   -0.0000
 1    3.357358    0.206012   -0.0000



