# ECKART GNIC GAUSS VOLT  
#P B3LYP 6-31g* opt 

 Indole rDSD/3F12- 

 0 1
 1    1.019243   -2.510432    0.000000
 1    0.920108    2.501584    0.000000
 1    3.070020    1.268427    0.000000
 1   -3.450402    0.084050    0.000000
 1   -1.988281   -2.178686    0.000000
 6   -1.614506   -1.167044    0.000000
 6   -2.377905   -0.030519    0.000000
 6   -0.241224   -0.748768    0.000000
 7   -1.556097    1.076802    0.000000
 6   -0.242046    0.668118    0.000000
 6    0.988916   -1.426623    0.000000
 6    0.937738    1.417472    0.000000
 6    2.160831   -0.689030    0.000000
 6    2.135321    0.720201    0.000000
 1    3.116665   -1.199447    0.000000
 1   -1.869120    2.030307    0.000000


