# GNIC Gauss SYMM
#P B3LYP 6-31+G* empiricaldispersion=GD3BJ opt=verytight output=pickett 

indoline 

 0 1
 6    1.023274    1.416279   -0.011119
 6    2.225065    0.690879   -0.054073
 6    2.197840   -0.706901   -0.038964
 6    0.986498   -1.408968    0.018067
 6   -0.199588   -0.674978    0.055434
 6   -0.182446    0.731285    0.037120
 1    3.174778    1.215744   -0.102172
 1    3.130960   -1.263284   -0.075365
 1    0.974820   -2.495910    0.033490
 6   -1.611584    1.223085    0.133302
 6   -2.413584   -0.043716   -0.248111
 1   -1.836226    2.070299   -0.522133
 1   -1.843586    1.527449    1.164045
 7   -1.517340   -1.147541    0.155228
 1   -2.593841   -0.059904   -1.335344
 1   -3.375064   -0.116363    0.267392
 1    1.039025    2.503884   -0.023338
 1   -1.705378   -2.046823   -0.273326


