# VOLT GAUSS
#P b3lyp/6-31g* opt

isopropylamine

 0 1
 C                 -0.97932500   -0.44839000    1.26000200  1
 H                 -1.87039600   -1.07332200    1.29588700  1
 H                 -0.97266500    0.17378700    2.15591800  1
 H                 -0.09999600   -1.09029800    1.28285800  1
 C                 -0.97932500    0.40536300    0.00000000  1
 H                 -1.88427900    1.02415000    0.00000000  1
 C                 -0.97932500   -0.44839000   -1.26000200  1
 H                 -1.87039600   -1.07332200   -1.29588700  1
 H                 -0.97266500    0.17378700   -2.15591800  1
 H                 -0.09999600   -1.09029800   -1.28285800  1
 N                  0.23297400    1.25067400    0.00000000  2
 H                  0.23994100    1.85476000   -0.81390300  2
 H                  0.23994100    1.85476000    0.81390300  2



