# Eckart GNIC GAUSS VOLT
#P B3LYP/6-31G* opt

Isoquinoline 3F12red

 0 1
7                   -2.413055    0.699788   -0.000000
6                   -2.379524   -0.662413   -0.000000
6                   -1.223224   -1.399549   -0.000000
6                    0.026104   -0.732417    0.000000
6                    0.005675    0.685455    0.000000
6                   -1.260081    1.329091    0.000000
6                    1.224690    1.406852    0.000000
6                    2.421813    0.734536    0.000000
6                    2.444570   -0.681287    0.000000
6                    1.275371   -1.402188    0.000000
1                   -3.347128   -1.151702   -0.000000
1                   -1.262148   -2.483063   -0.000000
1                    1.196822    2.491262    0.000000
1                    3.355654    1.283861    0.000000
1                    3.397403   -1.197686    0.000000
1                    1.294377   -2.486523    0.000000
1                   -1.295652    2.416546    0.000000



