# ECKART GNIC DIHED SYMM BLDZ SMILES GAUSSIAN
#P B3LYP/6-31G* OPT OUTPUT=PICKETT

L-histidine 

0 1
N[C@@H](Cc1c[nH]cn1)C(=O)O

