# ECKART GNIC VOLT GAUSSIAN
#P B3LYP 6-31G* OPT 

Molecular Motor  

 0 1
C    0.983135   -0.350306   -0.136487
C    2.385462   -0.733817    0.154295
C    1.028739    1.096325   -0.450112
C    3.195680    0.422928    0.085632
C    2.358666    1.551842   -0.313424
C    0.064464    1.962318   -0.970112
C    0.419222    3.276142   -1.270779
C    2.709503    2.864846   -0.610494
C    1.725455    3.732655   -1.077513
C    2.967155   -1.942781    0.544695
C    4.333164   -1.988748    0.821548
C    4.555919    0.375555    0.370582
C    5.125375   -0.842372    0.733984
H   -0.947422    1.630966   -1.154022
H   -0.331374    3.950624   -1.666093
H    1.977422    4.759736   -1.314601
H    3.733941    3.203176   -0.500757
H    2.385529   -2.846999    0.648451
H    4.783252   -2.929857    1.115512
H    6.184101   -0.900682    0.957722
H    5.163935    1.271802    0.315780
C   -0.093704   -1.185379   -0.168528
C   -1.525178   -0.862301   -0.253374
C   -2.165731   -1.871277   -0.960798
C   -1.187970   -2.956922   -1.323143
C   -0.015205   -2.695116   -0.343614
C   -3.545615   -1.822002   -1.224251
C   -4.284845   -0.776395   -0.721113
C   -3.688428    0.212192    0.105987
C   -2.287631    0.164851    0.377783
C   -1.744271    1.085258    1.308348
C   -4.475026    1.226499    0.709816
C   -3.912844    2.127610    1.580071
C   -2.538382    2.040799    1.896087
H   -4.020933   -2.603147   -1.807447
H   -5.350776   -0.714904   -0.914252
H   -5.535537    1.266230    0.484544
H   -4.524360    2.894440    2.040744
H   -2.106867    2.733078    2.609471
H   -0.693168    1.023665    1.557328
H   -1.613434   -3.957729   -1.210934
H   -0.848817   -2.849924   -2.359130
C   -0.241874   -3.444216    0.973056
H   -1.232188   -3.210278    1.372196
H   -0.182838   -4.524332    0.815321
H    0.495272   -3.163801    1.727649
H    0.934975   -2.988051   -0.790286




