# ECKART GNIC VOLT GAUSSIAN SYMM NORMAL
#P B3LYP/6-31g* opt 

Naphtalene

 0 1
   6  -2.426288    0.707476    0.000000
   6  -2.426288   -0.707476    0.000000
   6  -1.240818   -1.399703    0.000000
   6   0.000000   -0.711434    0.000000
   6   0.000000    0.711434    0.000000
   6  -1.240818    1.399703    0.000000
   6   1.240818    1.399703    0.000000
   6   2.426288    0.707476    0.000000
   6   2.426288   -0.707476    0.000000
   6   1.240818   -1.399703    0.000000
   1  -1.237121    2.484448    0.000000
   1  -3.368205    1.243216    0.000000
   1  -3.368205   -1.243216    0.000000
   1  -1.237121   -2.484448    0.000000
   1   1.237121    2.484448    0.000000
   1   3.368205    1.243216    0.000000
   1   3.368205   -1.243216    0.000000
   1   1.237121   -2.484448    0.000000

