# GNIC Eckart Gauss SYMM
#P B3LYP 6-31+G* empiricaldispersion=gd3bj opt output=pickett 

Nitrobenzene

 0 1
  6  -1.933226    1.225093   -0.000000
  6  -0.523484    1.232903   -0.000000
  6   0.156996   -0.000000   -0.000000
  6  -0.523484   -1.232903    0.000000
  6  -1.933226   -1.225093    0.000000
  6  -2.635291    0.000000   -0.000000
  1  -3.734416    0.000000   -0.000000
  1  -2.484766    2.176199   -0.000000
  1   0.058116    2.166011   -0.000000
  1   0.058116   -2.166011    0.000000
  1  -2.484766   -2.176199    0.000000
  7   1.691920   -0.000000    0.000000
  8   2.302714    1.180202   -0.000000
  8   2.302714   -1.180202    0.000000



