# ECKART GNIC GAUSSIAN VOLT DIHED SYMM  
#P B3LYP/6-31G* OPT

Norbornane B3/SVP

0 1
C    1.254413    0.782339   -0.493406
C    0.000000    1.133367    0.339929
C   -0.000000   -1.133367    0.339929
C    1.254413   -0.782339   -0.493406
H    1.205443    1.204895   -1.503516
H    2.160192    1.176887   -0.018171
H    1.205443   -1.204895   -1.503516
H    2.160192   -1.176887   -0.018171
C    0.000000    0.000000    1.388876
H   -0.892557    0.000000    2.026553
H    0.892557   -0.000000    2.026553
C   -1.254413    0.782339   -0.493406
H   -2.160192    1.176887   -0.018171
H   -1.205443    1.204895   -1.503516
C   -1.254413   -0.782339   -0.493406
H   -2.160192   -1.176887   -0.018171
H   -1.205443   -1.204895   -1.503516
H    0.000000    2.155230    0.731497
H   -0.000000   -2.155230    0.731497


