# ECKART GNIC GAUSSIAN VOLT SYMM 
#P OPT

Norcamphor B3/SVP

0 1
C   1.224245   -0.014017   -0.026903
O   2.377537   -0.309298   -0.265402
C   0.171976   -0.869522    0.668756
H   0.592235   -1.672009    1.276510
C   0.519894    1.302351   -0.393366
H   0.634108    1.528240   -1.459212
H   0.983261    2.121863    0.172148
C  -0.929118    1.034352    0.066193
H  -1.536020    1.936339    0.179612
C  -0.686480    0.215608    1.357634
H  -1.607689   -0.187711    1.793051
H  -0.144228    0.774408    2.129535
C  -1.545518   -0.033381   -0.868880
H  -2.621793   -0.131526   -0.690358
H  -1.410505    0.221032   -1.925692
C  -0.786912   -1.339675   -0.467074
H  -0.244732   -1.795787   -1.301191
H  -1.473454   -2.094756   -0.069345


