# ECKART GNIC GAUSS
#P OPt

Pagodane boh 

0 1
C         -1.06600       -2.14800        3.17600
C         -1.42200       -3.59900        3.25600
C         -0.02700       -2.43700        2.08300
C         -0.37000       -3.88900        2.15500
C         -2.18100       -1.40800        2.43400
C         -0.21700       -1.77800        4.39600
C         -2.66500       -3.82700        2.46300
C         -2.84100       -2.57200        1.64900
C         -2.42500       -4.94500        1.51400
H         -2.89300       -0.90500        3.12100
C         -1.44700       -0.62100        1.35500
C         -0.67000       -1.82100        0.83000
H         -0.79500        0.17800        1.76100
H         -2.13400       -0.18300        0.59700
C         -1.79000       -2.85000        0.53300
H          0.04500       -1.71200       -0.01300
H         -3.84200       -2.38900        1.20100
C         -1.21800       -4.24900        0.91900
H         -3.25600       -5.09100        0.78900
H         -2.18800       -5.90900        2.00900
H         -2.28000       -2.77000       -0.46200
H         -0.62600       -4.71400        0.10300
C          0.32700       -3.17000        4.80000
C         -0.78700       -4.20900        4.50800
C          1.00500       -1.09000        3.79900
H         -0.80600       -1.29900        5.20600
C          1.30600       -2.20200        2.80100
H          1.82200       -0.94100        4.54100
H          0.77000       -0.12000        3.31600
C          1.37700       -3.46400        3.69900
H          2.16500       -2.12500        2.10200
C          0.73800       -4.63100        2.90900
H          2.36000       -3.67300        4.17600
H          0.81300       -3.23800        5.79800
C         -0.00400       -5.41100        3.98900
H          1.46000       -5.13400        2.23200
H          0.67900       -5.84400        4.75400
H         -0.65200       -6.21300        3.58300
H         -1.50600       -4.31700        5.34700
H         -3.50695       -4.05114        3.08411


