# ECKART GNIC VOLT GAUSSIAN SYMM NORMALD DIHED 
#P B3LYP 6-31G* OPT 

Phenantrene 

 0 1
 6    2.828229    0.872684    0.000000
 6    1.416344    0.857453    0.000000
 6    3.549245   -0.300773    0.000000
 6    2.870161   -1.531344    0.000000
 6    1.491066   -1.568311    0.000000
 6    0.726311   -0.381079    0.000000
 6    0.678504    2.086384    0.000000
 6   -0.678504    2.086384    0.000000
 6   -1.416344    0.857453    0.000000
 6   -0.726311   -0.381079    0.000000
 6   -1.491066   -1.568311    0.000000
 6   -2.870161   -1.531344    0.000000
 6   -3.549245   -0.300773    0.000000
 6   -2.828229    0.872684    0.000000
 1   -0.997314   -2.531032    0.000000
 1   -3.432199   -2.457865    0.000000
 1   -4.632488   -0.278244    0.000000
 1   -3.337624    1.830525    0.000000
 1    1.231443    3.019699    0.000000
 1   -1.231443    3.019699    0.000000
 1    3.337624    1.830525    0.000000
 1    0.997314   -2.531032    0.000000
 1    4.632488   -0.278244    0.000000
 1    3.432199   -2.457865    0.000000


