# ECKART GNIC VOLT GAUSSIAN
#P B3LYP 6-31G* OPT 

Phenantridine 

 0 1
 7   -0.712672    2.048908    0.000000
 6    0.584804    2.026185    0.000000
 6    1.386620    0.835195    0.000000
 6    2.794095    0.908448    0.000000
 6    3.548979   -0.244050    0.000000
 6    2.906414   -1.495746    0.000000
 6    1.528988   -1.583572   -0.000000
 6    0.735504   -0.417162    0.000000
 6   -0.711811   -0.416336   -0.000000
 6   -1.491042   -1.592633   -0.000000
 6   -2.869088   -1.529406   -0.000000
 6   -3.523794   -0.284970   -0.000000
 6   -2.785362    0.878268   -0.000000
 6   -1.376689    0.833775    0.000000
 1    1.094689    2.988346    0.000000
 1    3.270418    1.883188    0.000000
 1    4.630969   -0.191196    0.000000
 1    3.500092   -2.402476   -0.000000
 1    1.062425   -2.560108   -0.000000
 1   -1.007710   -2.561437   -0.000000
 1   -3.449065   -2.444788   -0.000000
 1   -4.606476   -0.243140   -0.000000
 1   -3.256863    1.853430   -0.000000



