# GNIC Eckart Gauss 
#P B3LYP 6-31+G* empiricaldispersion=gd3bj opt output=pickett 

Picric Acid

 0 1
  6  -0.602396    1.151237   -0.001398
  6   0.768839    1.277183    0.000174
  6   1.540871    0.120536    0.023696
  6   0.968303   -1.133992    0.017480
  6  -0.417554   -1.232521   -0.013066
  6  -1.257639   -0.096286   -0.020949
  8  -2.576919   -0.133942   -0.079520
  7  -1.398489    2.386254    0.014510
  1   1.231452    2.254364   -0.014226
  7   3.004893    0.239003    0.048641
  1   1.578121   -2.025476    0.028802
  7  -0.991294   -2.576146   -0.042440
  1  -2.832117   -1.080540   -0.115955
  8  -2.225517   -2.674284   -0.107559
  8  -2.319658    2.442916    0.813110
  8  -1.048832    3.270483   -0.755998
  8  -0.239299   -3.529713   -0.002677
  8   3.651056   -0.798886    0.055029
  8   3.471523    1.369457    0.061418


