# ECKART GNIC GAUSSIAN VOLT SYMM 
#P OPT

 a-pinene B3/SVP

0 1
C -0.123398 -0.642332 -0.754615
C -1.433809 -0.280634 -0.089195
C -1.498241 0.918818 0.501547
C -0.279704 1.809298 0.521940
C 0.871346 1.152592 -0.246867
C 1.074150 -0.328477 0.208647
C 0.318739 0.595479 -1.582872
C 0.949123 -0.666983 1.685678
C 2.388571 -0.909626 -0.308706
C -2.561786 -1.263282 -0.135173
H 1.757596 1.792687 -0.275636
H -3.451980 -0.874754 0.362477
H -2.821813 -1.510381 -1.169537
H -2.274787 -2.201569 0.351155
H -2.408346 1.256985 0.988776
H -0.513228 2.783364 0.075412
H 0.019574 2.013511 1.557629
H -0.149284 -1.623721 -1.235102
H -0.479629 1.161678 -2.065119
H 1.101877 0.375454 -2.305626
H 0.018351 -0.309876 2.123623
H 0.995472 -1.751016 1.829887
H 1.782486 -0.226831 2.242423
H 2.559789 -0.710353 -1.366545
H 3.230563 -0.490045 0.250113
H 2.403409 -1.994247 -0.166230





