# ECKART GNIC VOLT GAUSSIAN SYMM DIHED 
#P B3LYP/6-31G* OPT 

progly1, rdsd/3f12m 
 
 0 1
 6  -2.074824    1.293726   -0.750874
 6  -2.223892   -0.165869   -1.178973
 6  -1.704877   -0.913580    0.057973
 7  -2.000540   -0.034773    1.206673
 6  -2.537799    1.248448    0.702617
 6  -0.204943   -1.183238   -0.093640
 8   0.240823   -1.795595   -1.053353
 7   0.564777   -0.705064    0.916192
 6   1.987899   -0.660999    0.772849
 6   2.452036    0.555236   -0.008598
 8   1.748807    1.445134   -0.411205
 8   3.789066    0.523588   -0.187665
 1  -2.156482    2.082056    1.295224
 1  -3.633285    1.269966    0.749123
 1  -2.180112   -1.891607    0.167784
 1  -1.025012    1.594878   -0.802705
 1  -2.663709    1.985440   -1.353849
 1  -1.666623   -0.432371   -2.075320
 1  -3.278914   -0.405609   -1.337469
 1   0.078635   -0.091562    1.555926
 1   2.477001   -0.648390    1.748753
 1   2.324828   -1.551210    0.240202
 1   4.022705    1.317423   -0.688177
 1  -2.639856   -0.477514    1.850109


