# ECKART GNIC VOLT GAUSSIAN SYMM
#P B3LYP 6-31G* OPT 

Pseudofluorene   

 0 1
  6    1.621320    0.781688    0.000000
  6    3.031892    0.626213    0.000000
  6    3.605194   -0.621519    0.000000
  6    2.791542   -1.778399    0.000000
  6    1.422571   -1.663468    0.000000
  6    0.802509   -0.388082    0.000000
  1    3.653824    1.515387    0.000000
  1    4.684089   -0.723881   -0.000000
  1    3.253172   -2.758994    0.000000
  1    0.803398   -2.553154    0.000000
  6    1.019651    2.068270   -0.000000
  6   -0.350347    2.214865    0.000000
  6   -1.159258    1.066541    0.000000
  6   -0.604301   -0.206145    0.000000
  1    1.663763    2.941206    0.000000
  1   -0.795473    3.204261    0.000000
  6   -2.658518    0.943086   -0.000000
  6   -2.883337   -0.550031   -0.000000
  1   -3.111433    1.416333   -0.879470
  1   -3.111433    1.416333    0.879470
  6   -1.692636   -1.186227   -0.000000
  1   -1.564597   -2.261419   -0.000000
  6   -4.245223   -1.160014    0.000000
  1   -4.816804   -0.847113   -0.879170
  1   -4.816804   -0.847115    0.879171
  1   -4.189106   -2.249498   -0.000001





