#P ECKART GNIC VOLT GAUSS SYMM 
#P B3LYP/6-31G* OPT 

Pyrene 

 0 1
 6   2.824202    1.208204    0.000000
 6   3.513924    0.000000    0.000000
 6   2.824202   -1.208204    0.000000
 6   1.424100   -1.231150    0.000000
 6   0.712282    0.000000    0.000000
 6   1.424100    1.231150    0.000000
 6  -0.712282   -0.000000    0.000000
 6  -1.424100   -1.231150    0.000000
 6  -0.679450   -2.458502    0.000000
 6   0.679450   -2.458502    0.000000
 6  -1.424100    1.231150    0.000000
 6  -2.824202    1.208204    0.000000
 6  -3.513924   -0.000000    0.000000
 6  -2.824202   -1.208204    0.000000
 6   0.679450    2.458502    0.000000
 6  -0.679450    2.458502    0.000000
 1   1.227444    3.394940    0.000000
 1  -1.227444    3.394940    0.000000
 1  -3.368035    2.146907    0.000000
 1  -4.597747    0.000000    0.000000
 1  -3.368035   -2.146907    0.000000
 1  -1.227444   -3.394940    0.000000
 1   1.227444   -3.394940    0.000000
 1   4.597747    0.000000    0.000000
 1   3.368035   -2.146907    0.000000
 1   3.368035    2.146907    0.000000



