#P B3LYP 6-31G* opt SYMMETRY=LOOSE 

Pyridine

0 1
 H
 C     1  R0001
 C     2  R0002    1  A0001
 H     3  R0003    2  A0002    1  D0001    0
 C     3  R0004    2  A0003    1  D0002    0
 H     5  R0005    3  A0004    2  D0003    0
 N     5  R0006    3  A0005    2  D0004    0
 C     7  R0006    5  A0006    3  D0005    0
 H     8  R0005    7  A0007    5  D0006    0
 C     2  R0002    1  A0001    3  D0007    0
 H    10  R0003    2  A0002    1  D0008    0

 R0001 =   1.08351
 R0002 =   1.39054
 A0001 = 120.77203
 R0003 =   1.08286
 A0002 = 121.29545
 D0001 =   0.00000
 R0004 =   1.39225
 A0003 = 118.51978
 D0002 = 180.00000
 R0005 =   1.08527
 A0004 = 120.29189
 D0003 = 180.00000
 R0006 =   1.33678
 A0005 = 123.73071
 D0004 =   0.00000
 A0006 = 117.04309
 D0005 =   0.00000
 A0007 = 115.97740
 D0006 = 180.00000
 D0007 = 180.00000
 D0008 =   0.00000

