# ECKART GNIC GAUSSIAN VOLT SYMM BLDZ
#P B3LYP 6-31G* opt 

Pyridine

0 1
1  -2.494015    0.000000    0.000000
6  -1.410500    0.000000    0.000000
6  -0.699065    1.194769    0.000000
1  -1.206310    2.151475    0.000000
6   0.692105    1.140055    0.000000
1   1.275926    2.054914    0.000000
7   1.390142    0.000000    0.000000
6   0.692105   -1.140055    0.000000
1   1.275926   -2.054914    0.000000
6  -0.699065   -1.194769    0.000000
1  -1.206310   -2.151475    0.000000


