# Eckart GNIC VOLT GAUSSIAN SYMM
#P b3lyp/6-31g* opt 

 pyridazine rDSD

 0 1
 6    0.019250    1.319347    0.000000
 7    1.180734    0.666585    0.000000
 7    1.180734   -0.666585    0.000000
 6    0.019250   -1.319347    0.000000
 6   -1.226007   -0.689679    0.000000
 6   -1.226007    0.689679    0.000000
 1   -2.141115    1.268437    0.000000
 1    0.104229    2.399963    0.000000
 1    0.104229   -2.399963    0.000000
 1   -2.141115   -1.268437    0.000000

