# ECKART GNIC GAUSSIAN VOLT SYMM BPCS 
#P B3LYP 6-31G* opt 

Pyrimidine

0 1
1   0.000000    2.461386    0.000000
6   0.000000    1.379485    0.000000
6  -1.181936    0.650126    0.000000
7  -1.195744   -0.686161    0.000000
6  -0.000000   -1.278677    0.000000
6   1.181936    0.650126    0.000000
7   1.195744   -0.686161    0.000000
1  -2.148366    1.143675    0.000000
1   0.000000   -2.363373    0.000000
1   2.148366    1.143675    0.000000


