# ECKART GNIC GAUSSIAN VOLT DIHED SYMM BLDZ SMILES
#P B3LYP/6-31G* OPT FREQ=INTMODES

Pyrrole 

0 1
N1C=CC=C1

