# ECKART GNIC GAUSSIAN VOLT DIHED SYMM
#P B3LYP/6-31G* OPT FREQ=INTMODES

Pyrrole 

0 1
 6    0.982406    0.711702    0.000000
 6    0.982406   -0.711702    0.000000
 6   -0.331306    1.122466    0.000000
 1    1.844094    1.359972    0.000000
 6   -0.331306   -1.122466    0.000000
 1    1.844094   -1.359972    0.000000
 7   -1.118521    0.000000    0.000000
 1   -0.764995    2.108829    0.000000
 1   -2.122136    0.000000    0.000000
 1   -0.764995   -2.108829    0.000000


