# ECKART GNIC GAUSSIAN VOLT SYMM SYSTR NORMAL INVDIST
#P B3LYP 6-31G* opt 

Pyrrolidine B1a 

0 1
6    0.110827   -0.479193    1.158512
6    0.110827    1.026344    0.777757
6    0.110827    1.026344   -0.777757
1    0.976077    1.552804    1.195469
1   -0.786922    1.521363    1.165627
6    0.110827   -0.479193   -1.158512
1    0.976077    1.552804   -1.195469
1   -0.786922    1.521363   -1.165627
7   -0.418422   -1.215295    0.000000
1   -0.473997   -0.704569    2.055631
1    1.137518   -0.825031    1.336715
1   -1.436252   -1.147880    0.000000
1    1.137518   -0.825031   -1.336715
1   -0.473997   -0.704569   -2.055631


