# GNIC Eckart NORM DIHE SCAN Gauss 
#P hf3c opt 

Ribose 3f12red

 0 1
 8  -1.241467   -1.059720   -0.418039
 6  -1.469763    0.331237   -0.581895
 8  -2.175115    0.870525    0.511334
 1  -3.029942    0.431640    0.557058
 1  -2.067274    0.394022   -1.494967
 6  -0.166740    1.102558   -0.721980
 1   0.291943    0.830697   -1.676680
 1  -0.372044    2.173217   -0.746339
 6   0.809939    0.779138    0.407949
 8   2.072669    1.379207    0.184730
 1   2.525230    0.821643   -0.459228
 1   0.433787    1.190178    1.347524
 6   0.946305   -0.734871    0.558601
 8   1.632651   -1.278002   -0.569557
 1   0.972893   -1.439951   -1.252724
 1   1.567143   -0.959636    1.428813
 6  -0.426258   -1.360281    0.718226
 1  -0.354086   -2.446980    0.752252
 1  -0.900495   -1.000764    1.635782


