# ECKART GNIC DIHED SYMM BLDZ SMILES GAUSSIAN
#P B3LYP/6-31G* OPT OUTPUT=PICKETT

serine

0 1
N[C@@H](CO)C(=O)O

