# ECKART SYMM GNIC GAUSSIAN VOLT 
#P B3LYP/6-31G* OPT 
 
spirocompound

  0  1
C         -4.33517       -0.14632       -1.23944
C         -5.38313       -0.72895       -0.29902
C         -4.80927       -1.84073        0.57059
H         -6.22894       -1.11307       -0.88029
H         -5.77604        0.06824        0.34425
C         -3.56342       -1.37831        1.32512
H         -4.57252       -2.71221       -0.05031
H         -5.56889       -2.16828        1.28988
C         -2.45709       -0.80135        0.40257
H         -3.16931       -2.21739        1.91222
H         -3.86591       -0.61183        2.05164
C         -3.08466        0.30700       -0.48492
H         -2.36192        0.69552       -1.20988
H         -3.36193        1.15977        0.14982
H         -4.76461        0.70832       -1.77524
H         -4.06825       -0.88691       -2.00165
C         -1.34753       -0.19311        1.30083
C         -0.10439        0.24305        0.52644
H         -1.04241       -0.93421        2.05216
H         -1.73960        0.66567        1.86015
C          0.46644       -0.89798       -0.30651
H          0.65776        0.59506        1.23135
H         -0.34340        1.09271       -0.12318
C         -0.58481       -1.51250       -1.22264
H          0.86168       -1.67263        0.36236
H          1.31016       -0.53410       -0.90363
C         -1.83261       -1.93956       -0.44855
H         -0.15723       -2.38506       -1.73029
H         -0.85449       -0.79851       -2.00888
H         -1.55304       -2.77004        0.21411
H         -2.55789       -2.35270       -1.15717



