# GNIC VOLT GAUSSIAN SYMM DIHED NORMAL BLDZMT 
#P OPT  

 testosterone rdsd/3f12m 
 
0 1
C  -0.389287  -1.749038   0.051760
C   0.281713  -0.383367  -0.153621
C  -0.589053   0.776112   0.364762
C  -1.975763   0.651994  -0.242243
C  -2.667400  -0.678579   0.072291
C  -1.816865  -1.803153  -0.499949
C  -4.005080  -0.434076  -0.641733
C  -4.372603   1.009599  -0.269884
C  -3.037663   1.707647   0.083408
C   0.053526   2.109972   0.012816
C   1.469000   2.199923   0.569282
C  -2.917821  -0.889795   1.566003
O  -5.071978  -1.298371  -0.285742
H  -4.905464  -2.160727  -0.672662
C   3.525390   1.253164  -0.411670
C   4.475747   0.181781  -0.733051
O   5.538594   0.408678  -1.282209
C   2.314540   1.039620   0.135051
H  -1.835633   0.667967  -1.334122
H  -0.675334   0.714190   1.455943
H   0.359769  -0.226094  -1.239987
H  -3.002187   1.973176   1.142342
H  -2.889844   2.627367  -0.482183
H   0.082105   2.214797  -1.077718
H  -0.548591   2.935723   0.398523
H  -2.254749  -2.782503  -0.279034
H  -1.784680  -1.702501  -1.591159
H  -3.825714  -0.503283  -1.722723
H  -3.529920  -0.095742   1.992877
H  -3.453654  -1.826661   1.720867
H  -1.989603  -0.933763   2.133868
H  -4.897871   1.503416  -1.086493
H  -5.054691   0.983513   0.580266
H  -0.408343  -1.995617   1.114999
H   1.949778   3.134405   0.275916
H   1.414284   2.201589   1.663861
H   3.877248   2.263077  -0.592467
H   0.202433  -2.526455  -0.433729
C   4.074247  -1.198195  -0.279364
H   4.624274  -1.933027  -0.866661
H   4.400072  -1.305523   0.760146
C   2.569601  -1.394004  -0.394437
H   2.293283  -1.340229  -1.452599
H   2.306710  -2.394435  -0.047958
C   1.746994  -0.348131   0.375275
C   1.816558  -0.641912   1.883584
H   2.838250  -0.526401   2.247843
H   1.185694   0.033543   2.460719
H   1.499244  -1.663118   2.095135



