# ECKART GNIC GAUSSIAN VOLT SYMM NORMAL DIHED  
#P OPT

 Thujone rDSD/3F12-

0 1
 C   -0.615677   -0.226375    0.342968
 C    0.130254   -0.922809   -0.777625
 C    1.609823   -0.736659   -0.448662
 C    1.770251    0.416114    0.545176
 C    0.397064    0.554977    1.159496
 C   -0.231539   -0.695874    1.721217
 C   -2.012814    0.309214    0.113271
 C   -2.043500    1.384875   -0.971921
 C   -2.990184   -0.822032   -0.204787
 H    0.389856   -1.580823    1.819618
 H   -0.966674   -0.573074    2.507220
 H   -0.055203   -0.441904   -1.744679
 H   -0.096994   -1.984752   -0.889225
 H   -2.326395    0.776709    1.055348
 H    0.112772    1.508100    1.592052
 H   -1.788387    0.969256   -1.950449
 H   -3.041750    1.821145   -1.054312
 H   -1.338037    2.189393   -0.750093
 H   -2.724779   -1.307421   -1.148277
 H   -4.010446   -0.443298   -0.301926
 H   -2.980111   -1.582274    0.579695
 O    2.517050   -1.385248   -0.913459
 H    2.543982    0.148508    1.270107
 C    2.194841    1.673643   -0.220096
 H    2.292549    2.519704    0.463355
 H    3.152387    1.516007   -0.718762
 H    1.449713    1.936273   -0.976235





