# GNIC Eckart Gauss 
#P B3LYP 6-31+G* empiricaldispersion=gd3bj opt 

TNT 

 0 1
 6   -0.529422    1.174650    0.027569
 6    0.855440    1.209013   -0.013531
 6    1.527476   -0.000000   -0.046280
 6    0.855440   -1.209013   -0.013531
 6   -0.529422   -1.174650    0.027569
 6   -1.291226    0.000000    0.058431
 6   -2.788321    0.000000    0.197002
 7   -1.201134    2.485636    0.030122
 1    1.391015    2.147512   -0.018212
 7    2.999564   -0.000000   -0.108447
 1    1.391015   -2.147512   -0.018212
 7   -1.201134   -2.485636    0.030122
 1   -3.125334   -0.885358    0.732189
 1   -3.261759    0.000000   -0.785281
 1   -3.125334    0.885358    0.732189
 8   -2.169699    2.616804   -0.705719
 8   -0.723201    3.351528    0.749585
 8   -2.169699   -2.616804   -0.705719
 8   -0.723201   -3.351528    0.749585
 8    3.556221   -1.087927   -0.132003
 8    3.556221    1.087927   -0.132003


