%Nprocshared=8
%Mem=32GB
#HF OUTPUT=PICKETT                                                              
geom=(readallgic,gicallsym) iop(1/33=1)

H2C0                                                                            

  0  1
  8    -0.61180    -0.00000    -0.00000
  6     0.61820     0.00000     0.00000
  1     1.17444    -0.92574    -0.00000
  1     1.17444     0.92574     0.00000
 
 R(  1,  2)
 R(  2,  3)
 R(  2,  4)
 SymD1=[ 0.8165*A(  3,  2,  4)-0.4082*A(  1,  2,  3)-0.4082*A(  1,  2,  4)]
 Rock2=[ 0.7071*A(  1,  2,  3)-0.7071*A(  1,  2,  4)]
 U(  2,  1,  3,  4)
