# ECKART GNIC GAUSSIAN VOLT BPCS
#P B3LYP/6-31G*  

Uracil 

0 1
   6   1.284614    0.312086    0.000000
   7   0.034976    0.949478    0.000000
   6  -1.216052    0.368704    0.000000
   7  -1.174808   -1.015698    0.000000
   6  -0.007792   -1.738244    0.000000
   6   1.199306   -1.142530    0.000000
   1  -2.071601   -1.472056    0.000000
   8  -2.253526    0.996013    0.000000
   1   0.046777    1.959872    0.000000
   8   2.308378    0.966836    0.000000
   1  -0.127684   -2.813517    0.000000
   1   2.115688   -1.711219    0.000000


