# ECKART GNIC DIHED SYMM BLDZ GAUSSIAN SMILES
#P B3LYP/6-31G* OPT OUTPUT=PICKETT

urea

0 1
NC(=O)N

